*SPEF "IEEE 1481-1998"
*DESIGN "control_unit_fsm"
*DATE "Fri Nov  7 18:12:44 2025"
*VENDOR "Cadence Design Systems, Inc."
*PROGRAM "Innovus"
*VERSION "21.15-s110_1"
*DESIGN_FLOW "PIN_CAP NONE" "NAME_SCOPE LOCAL"
*DIVIDER /
*DELIMITER :
*BUS_DELIMITER []
*T_UNIT 1 NS
*C_UNIT 1 PF
*R_UNIT 1 OHM
*L_UNIT 1 HENRY

// MMMC spef file for corner 'rccorner'

*NAME_MAP

*1 clk
*2 rst_n
*3 opcode[3]
*4 opcode[2]
*5 opcode[1]
*6 opcode[0]
*7 RegWrite
*8 ALUSrc
*9 ALUOp[1]
*10 ALUOp[0]
*11 MemRead
*12 MemWrite
*13 MemtoReg
*14 SE
*15 scan_in
*16 scan_out
*17 state[2]
*18 state[1]
*19 state[0]
*20 n_0
*21 n_1
*22 n_2
*23 n_3
*24 n_5
*25 n_6
*26 n_8
*27 n_9
*28 n_11
*29 n_12
*30 n_15
*31 n_16
*32 n_17
*33 n_19
*34 n_20
*35 n_21
*36 n_22
*37 n_23
*38 n_24
*39 n_25
*40 n_26
*41 Branch
*42 state_reg\[1\]
*43 state_reg\[2\]
*44 g660__2398
*45 state_reg\[3\]
*46 state_reg\[0\]
*47 g663__5107
*48 g665__6260
*49 g666__4319
*50 g669__8428
*51 g668__5526
*52 g670__6783
*53 g674
*54 g672__3680
*55 g677__1617
*56 g676__2802
*57 g671
*58 g667__1705
*59 g678
*60 g675__5122
*61 g679__8246
*62 g680__7098
*63 g681__6131
*64 g673__1881
*65 g682__5115
*66 g683__7482
*67 g688__4733
*68 g684__6161
*69 g685__9315
*70 g686__9945
*71 g687__2883
*72 g690
*73 g689


*PORTS

*1 I *C 0 7.685
*2 I *C 0 7.685
*3 I *C 12.905 18.27
*4 I *C 12.615 18.27
*5 I *C 10.005 18.27
*6 I *C 9.135 18.27
*7 O *C 23.055 0
*8 O *C 18.125 18.27
*9 O *C 16.675 0
*10 O *C 12.905 0
*11 O *C 22.765 18.27
*12 O *C 28.42 5.365
*13 O *C 22.765 0
*41 O *C 13.485 0
*14 I *C 11.455 0
*15 I *C 11.455 0
*16 O *C 13.485 0


*D_NET *1 0.00118561

*CONN
*P *1 I *C 0 7.685 *L 0
*I *45:CK I *C 3.335 9.135 *L 0.00176 *D SDFFRHQX1
*I *42:CK I *C 3.625 6.525 *L 0.00176 *D SDFFRHQX1
*I *43:CK I *C 3.625 11.745 *L 0.00176 *D SDFFRHQX1
*I *46:CK I *C 3.625 3.915 *L 0.00176 *D SDFFRHQX1

*CAP
1 *1 4.1652e-05
2 *1:1 0.000180492
3 *1:2 0.00013884
4 *1:3 5.68705e-05
5 *1:4 8.53057e-05
6 *1:5 4.26529e-05
7 *1:6 7.10881e-05
8 *1:8 8.53057e-05
9 *1:9 8.53057e-05
10 *1:10 0.000199047
11 *1:11 7.10881e-05
12 *1:12 0.000127959

*RES
1 *1:12 *46:CK 1.4
2 *1:11 *43:CK 1.4
3 *1:10 *42:CK 1.4
4 *1:10 *1:12 1.1186
5 *1:9 *1:11 0.621444
6 *1:8 *1:10 0.621444
7 *1:6 *1:9 0.124289
8 *1:5 *1:8 0.124289
9 *1:4 *45:CK 1.4
10 *1:4 *1:6 0.497155
11 *1:3 *1:5 0.248578
12 *1:3 *1:4 0.248578
13 *1:2 *1:3 1.4
14 *1:1 *1:2 1.24283
15 *1 *1:1 0.372848
*END

*D_NET *2 0.00141042

*CONN
*I *42:RN I *C 5.365 6.525 *L 0.00439 *D SDFFRHQX1
*I *46:RN I *C 5.365 3.915 *L 0.00439 *D SDFFRHQX1
*I *45:RN I *C 5.075 9.135 *L 0.00439 *D SDFFRHQX1
*P *2 I *C 0 7.685 *L 0
*I *43:RN I *C 5.365 11.745 *L 0.00439 *D SDFFRHQX1

*CAP
1 *2:1 0.000199047
2 *2:2 0.000222144
3 *2:3 8.53057e-05
4 *2:4 0.000127959
5 *2:6 0.000222144
6 *2:7 7.10881e-05
7 *2:9 5.68705e-05
8 *2:10 9.95233e-05
9 *2:11 5.68705e-05
10 *2:12 5.68705e-05
11 *2:14 1.3884e-05
12 *2:15 9.95233e-05
13 *2 1.3884e-05
14 *2:17 8.53057e-05

*RES
1 *2:17 *43:RN 1.4
2 *2:15 *2:17 0.745732
3 *2:14 *2 0.124283
4 *2:12 *2:15 0.124289
5 *2:11 *2:14 1.4
6 *2:10 *45:RN 1.4
7 *2:10 *2:12 0.372866
8 *2:9 *2:11 0.497155
9 *2:7 *2:10 0.497155
10 *2:6 *2:9 1.4
11 *2:4 *46:RN 1.4
12 *2:3 *2:7 0.124289
13 *2:2 *2:6 1.98852
14 *2:1 *42:RN 1.4
15 *2:1 *2:4 1.1186
16 *2:1 *2:3 0.621444
17 *2:1 *2:2 1.4
18 *2:0 *2:1 0.220714
*END

*D_NET *3 0.000426529

*CONN
*I *68:B I *C 12.035 14.355 *L 0.00171 *D NOR2XL
*P *3 I *C 12.905 18.27 *L 0

*CAP
1 *3:1 0.000127959
2 *3:2 0.000170611
3 *3:3 8.53057e-05
4 *3 4.26529e-05

*RES
1 *3:3 *3 0.372866
2 *3:2 *3:3 0.372866
3 *3:1 *3:2 1.1186
4 *68:B *3:1 1.4
*END

*D_NET *4 0.000396092

*CONN
*I *68:A I *C 11.745 14.645 *L 0.00162 *D NOR2XL
*P *4 I *C 12.615 18.27 *L 0

*CAP
1 *4:1 0.000142176
2 *4:2 0.000142176
3 *4:3 4.1652e-05
4 *4:4 4.1652e-05
5 *4:5 1.42176e-05
6 *4 1.42176e-05

*RES
1 *4:5 *4 0.124289
2 *4:4 *4:5 1.4
3 *4:3 *4:4 0.372848
4 *4:2 *4:3 1.4
5 *4:1 *4:2 1.24289
6 *68:A *4:1 1.4
*END

*D_NET *5 0.0017674

*CONN
*I *50:S0 I *C 15.515 14.065 *L 0.00371 *D MX2X1
*I *49:A I *C 14.355 12.035 *L 0.00182 *D AND4XL
*P *5 I *C 10.005 18.27 *L 0
*I *62:A1 I *C 5.945 14.355 *L 0.00278 *D OAI211X1
*I *70:B I *C 4.785 14.355 *L 0.00167 *D NAND2XL

*CAP
1 *5:2 5.5536e-05
2 *5:4 0.000152724
3 *5:5 0.000111072
4 *5:6 9.95233e-05
5 *5:7 0.000124956
6 *5:8 9.95233e-05
7 *5:9 0.000152724
8 *5:11 0.000170611
9 *5:12 5.5536e-05
10 *5 0.000170611
11 *5:14 0.000124956
12 *5:15 0.000124956
13 *5:16 5.5536e-05
14 *5:17 4.1652e-05
15 *5:18 2.84352e-05
16 *5:19 8.53057e-05
17 *5:21 8.53057e-05
18 *5:22 2.84352e-05

*RES
1 *5:22 *70:B 1.4
2 *5:21 *5:22 0.248578
3 *5:19 *5:21 0.497155
4 *5:18 *62:A1 1.4
5 *5:18 *5:19 0.248578
6 *5:17 *5:18 1.4
7 *5:16 *5:17 0.372848
8 *5:15 *5:16 0.124283
9 *5:14 *5:15 0.994261
10 *5:12 *5:14 0.124283
11 *5:11 *5 1.49146
12 *5:9 *5:12 0.372848
13 *5:9 *5:11 1.4
14 *5:8 *49:A 1.4
15 *5:7 *5:9 0.994261
16 *5:6 *5:8 0.870021
17 *5:5 *5:7 0.124283
18 *5:4 *5:6 1.4
19 *5:4 *5:5 0.869979
20 *5:2 *5:4 0.497131
21 *5:1 *50:S0 1.4
22 *5:1 *5:2 1.4
23 *5:0 *5:1 0.220714
*END

*D_NET *6 0.00207752

*CONN
*I *70:A I *C 4.205 14.355 *L 0.00157 *D NAND2XL
*I *62:A0 I *C 5.365 14.355 *L 0.00267 *D OAI211X1
*P *6 I *C 9.135 18.27 *L 0
*I *49:B I *C 13.775 11.745 *L 0.00179 *D AND4XL
*I *44:A0 I *C 14.065 9.135 *L 0.00267 *D OAI211X1

*CAP
1 *6:2 5.5536e-05
2 *6:4 8.33039e-05
3 *6:5 5.5536e-05
4 *6:7 4.1652e-05
5 *6:10 0.000124956
6 *6:11 0.000124956
7 *6:12 5.5536e-05
8 *6:13 8.33039e-05
9 *6:14 0.000142176
10 *6:15 5.5536e-05
11 *6 0.000142176
12 *6:17 0.000124956
13 *6:18 0.000124956
14 *6:19 5.5536e-05
15 *6:20 4.1652e-05
16 *6:21 0.000184829
17 *6:22 0.000312788
18 *6:23 5.68705e-05
19 *6:24 9.95233e-05
20 *6:25 2.84352e-05
21 *6:26 4.1652e-05
22 *44:A0 4.1652e-05

*RES
1 *6:26 *44:A0 0.372848
2 *6:25 *49:B 1.4
3 *6:24 *6:26 1.4
4 *6:23 *6:25 0.248578
5 *6:22 *6:24 0.870021
6 *6:22 *6:23 0.248578
7 *6:21 *6:22 1.61575
8 *6:20 *6:21 1.4
9 *6:19 *6:20 0.372848
10 *6:18 *6:19 0.124283
11 *6:17 *6:18 0.994261
12 *6:15 *6:17 0.124283
13 *6:14 *6 1.24289
14 *6:13 *6:15 0.372848
15 *6:13 *6:14 1.4
16 *6:12 *6:13 0.372848
17 *6:11 *6:12 0.124283
18 *6:10 *6:11 0.994261
19 *6:7 *6:10 0.124283
20 *6:6 *62:A0 1.4
21 *6:6 *6:8 0.03
22 *6:5 *6:7 0.248565
23 *6:4 *6:6 1.4
24 *6:4 *6:5 0.248565
25 *6:2 *6:4 0.497131
26 *6:1 *70:A 1.4
27 *6:1 *6:2 1.4
28 *6:0 *6:1 0.220714
*END

*D_NET *7 0.000534931

*CONN
*I *54:Y O *C 20.735 3.625 *L 0 *D NOR2XL
*P *7 O *C 23.055 0 *L 0

*CAP
1 *7:0 0.000111072
2 *7:1 8.53057e-05
3 *7:2 0.000111072
4 *7:3 8.53057e-05
5 *7:4 7.10881e-05
6 *7 7.10881e-05

*RES
1 *7:4 *7 0.621444
2 *7:3 *54:Y 1.4
3 *7:2 *7:4 1.4
4 *7:1 *7:3 0.745732
5 *7:0 *7:2 0.994261
6 *7:0 *7:1 1.4
*END

*D_NET *8 0.0010521

*CONN
*I *50:B I *C 16.965 14.355 *L 0.00184 *D MX2X1
*P *8 O *C 18.125 18.27 *L 0
*I *59:Y O *C 19.0775 11.455 *L 0 *D CLKINVX1
*I *52:A I *C 17.545 11.455 *L 0.00162 *D NOR2XL

*CAP
1 *8:1 2.84352e-05
2 *8:2 8.53057e-05
3 *8:3 0.000312788
4 *8 0.000142176
5 *8:5 0.000170611
6 *8:6 9.95233e-05
7 *8:7 2.84352e-05
8 *8:8 5.68705e-05
9 *8:9 2.84352e-05
10 *8:11 5.68705e-05
11 *8:12 4.26529e-05

*RES
1 *8:12 *52:A 1.4
2 *8:11 *8:12 0.372866
3 *8:9 *8:11 0.124289
4 *8:8 *59:Y 1.4
5 *8:7 *8:9 0.124289
6 *8:6 *8:8 0.497155
7 *8:5 *8:7 0.124289
8 *8:5 *8:6 0.372866
9 *8:3 *8:5 0.99431
10 *8:3 *8 1.24289
11 *8:2 *8:3 0.497155
12 *8:1 *8:2 0.248578
13 *50:B *8:1 1.4
*END

*D_NET *9 0.00126691

*CONN
*I *57:A I *C 13.205 6.4625 *L 0.00163 *D INVXL
*P *9 O *C 16.675 0 *L 0
*I *64:Y O *C 18.415 3.625 *L 0 *D NOR2XL

*CAP
1 *9:0 4.1652e-05
2 *9:1 0.000124956
3 *9:2 0.000227482
4 *9:3 0.000124956
5 *9:4 0.000227482
6 *9:5 0.000124956
7 *9:7 9.71879e-05
8 *9:8 7.10881e-05
9 *9:9 1.3884e-05
10 *9 7.10881e-05
11 *9:11 7.10881e-05
12 *9:12 7.10881e-05

*RES
1 *9:12 *64:Y 1.4
2 *9:11 *9:12 0.621444
3 *9:9 *9:11 1.4
4 *9:8 *9 0.621444
5 *9:7 *9:9 0.124283
6 *9:5 *9:8 1.4
7 *9:5 *9:7 0.745696
8 *9:4 *57:A 1.4
9 *9:3 *9:5 0.372848
10 *9:2 *9:4 1.98862
11 *9:1 *9:3 0.745696
12 *9:0 *9:2 1.4
13 *9:0 *9:1 0.372848
*END

*D_NET *10 0.000425194

*CONN
*P *10 O *C 12.905 0 *L 0
*P *41 O *C 13.485 0 *L 0
*I *58:Y O *C 13.485 4.785 *L 0 *D NOR3BXL

*CAP
1 *10 0.000184829
2 *10:1 0.000156394
3 *41 2.84352e-05
4 *10:3 2.7768e-05
5 *58:Y 2.7768e-05

*RES
1 *10:3 *58:Y 0.248565
2 *10:1 *10:3 1.4
3 *10 *41 0.248578
4 *10 *10:1 1.36718
*END

*D_NET *11 0.000796187

*CONN
*I *53:A I *C 22.185 14.645 *L 0.00273 *D CLKINVX1
*P *11 O *C 22.765 18.27 *L 0
*I *55:Y O *C 23.925 12.035 *L 0 *D NOR2XL

*CAP
1 *11:1 2.84352e-05
2 *11:2 5.68705e-05
3 *11:3 0.000213264
4 *11:4 0.000213264
5 *11 0.000127959
6 *11:6 0.000156394

*RES
1 *11:6 *55:Y 1.4
2 *11:4 *11:6 1.36718
3 *11:3 *11 1.1186
4 *11:3 *11:4 0.497155
5 *11:2 *11:3 0.248578
6 *11:1 *11:2 0.248578
7 *53:A *11:1 1.4
*END

*D_NET *12 0.000429133

*CONN
*I *60:Y O *C 24.215 4.205 *L 0 *D NOR3XL
*P *12 O *C 28.42 5.365 *L 0

*CAP
1 *60:Y 9.61759e-05
2 *12:1 9.61759e-05
3 *12:2 4.72305e-05
4 *12:3 4.72305e-05
5 *12:4 7.116e-05
6 *12 7.116e-05

*RES
1 *12:4 *12 0.745714
2 *12:3 *12:4 1.4
3 *12:2 *12:3 0.497155
4 *12:1 *12:2 1.4
5 *60:Y *12:1 0.86998
*END

*D_NET *13 0.000398093

*CONN
*I *61:Y O *C 22.475 4.205 *L 0 *D NOR3XL
*P *13 O *C 22.765 0 *L 0

*CAP
1 *13:5 2.84352e-05
2 *13:6 4.26529e-05
3 *13:7 0.000170611
4 *13 0.000156394

*RES
1 *13:7 *13 1.36718
2 *13:6 *13:7 0.124289
3 *13:5 *13:6 0.248578
4 *13:3 *13:5 1.4
5 *13:3 *13:4 0.220714
6 *13:1 *13:3 1.4
7 *13:1 *61:Y 1.4
8 *13:0 *13:1 0.220714
*END

*D_NET *14 0.00116584

*CONN
*P *14 I *C 11.455 0 *L 0
*I *46:SE I *C 11.455 4.205 *L 0.00488 *D SDFFRHQX1
*I *42:SE I *C 11.455 6.235 *L 0.00488 *D SDFFRHQX1
*I *45:SE I *C 11.165 9.425 *L 0.00488 *D SDFFRHQX1
*I *43:SE I *C 11.455 11.455 *L 0.00488 *D SDFFRHQX1

*CAP
1 *14 0.000113741
2 *14:1 0.000127959
3 *14:2 8.53057e-05
4 *14:3 0.000170611
5 *14:4 0.000184829
6 *14:6 9.95233e-05
7 *14:8 8.53057e-05
8 *14:9 0.000127959
9 *14:10 7.10881e-05
10 *14:12 5.68705e-05
11 *14:13 4.26529e-05

*RES
1 *14:13 *43:SE 1.4
2 *14:12 *14:13 0.372866
3 *14:10 *14:12 0.124289
4 *14:9 *45:SE 1.4
5 *14:9 *14:10 0.497155
6 *14:8 *14:9 0.621444
7 *14:6 *14:8 0.124289
8 *14:4 *42:SE 1.4
9 *14:4 *14:6 0.745732
10 *14:3 *46:SE 1.4
11 *14:3 *14:4 0.870021
12 *14:2 *14:3 0.621444
13 *14:1 *14:2 0.124289
14 *14 *14:1 0.99431
*END

*D_NET *15 0.000341223

*CONN
*P *15 I *C 11.455 0 *L 0
*I *46:SI I *C 11.455 3.915 *L 0.00276 *D SDFFRHQX1

*CAP
1 *15:2 0.000142176
2 *15:3 2.84352e-05
3 *15 0.000142176
4 *15:5 2.84352e-05

*RES
1 *15:5 *46:SI 1.4
2 *15:3 *15:5 0.248578
3 *15:2 *15 1.24289
4 *15:1 *15:3 1.4
5 *15:1 *15:2 1.4
6 *15:0 *15:1 0.220714
*END

*D_NET *16 0.0030805

*CONN
*I *45:Q O *C 2.755 9.715 *L 0 *D SDFFRHQX1
*P *16 O *C 13.485 0 *L 0
*I *71:B I *C 16.965 6.525 *L 0.00171 *D NOR2XL
*I *51:B0 I *C 15.515 6.235 *L 0.00262 *D OAI22X1
*I *58:AN I *C 14.935 3.915 *L 0.00174 *D NOR3BXL
*I *69:AN I *C 17.255 4.205 *L 0.00178 *D NAND2BX1

*CAP
1 *16:0 7.10881e-05
2 *16:1 7.10881e-05
3 *16:2 6.94199e-05
4 *16:3 4.1652e-05
5 *16:4 8.33039e-05
6 *45:Q 4.1652e-05
7 *16:6 0.00013884
8 *16:7 0.00013884
9 *16:8 0.000180492
10 *16:9 0.000180492
11 *16:10 0.000166608
12 *16:11 0.000166608
13 *16:12 5.5536e-05
14 *16:13 0.000166608
15 *16:14 0.000124956
16 *16:15 0.000184829
17 *16:16 7.10881e-05
18 *16:17 0.000327005
19 *16:18 7.10881e-05
20 *16:19 2.84352e-05
21 *16 0.000142176
22 *16:21 6.94199e-05
23 *16:22 2.84352e-05
24 *16:23 2.7768e-05
25 *16:24 0.000180492
26 *51:B0 2.7768e-05
27 *16:27 0.000111072
28 *16:28 2.84352e-05
29 *16:29 2.84352e-05
30 *16:30 2.84352e-05
31 *16:31 2.84352e-05

*RES
1 *16:31 *69:AN 1.4
2 *16:30 *58:AN 1.4
3 *16:29 *16:31 0.248578
4 *16:28 *16:30 0.248578
5 *16:27 *16:29 1.4
6 *16:24 *16:28 1.4
7 *16:24 *16:27 0.994261
8 *16:23 *51:B0 0.248565
9 *16:22 *71:B 1.4
10 *16:21 *16:24 0.621413
11 *16:19 *16:23 1.4
12 *16:18 *16:22 0.248578
13 *16:17 *16:21 1.4
14 *16:17 *16 1.24289
15 *16:16 *16:19 0.248578
16 *16:16 *16:18 0.372866
17 *16:15 *16:17 1.61575
18 *16:14 *16:16 1.4
19 *16:13 *16:15 1.4
20 *16:13 *16:14 1.11854
21 *16:12 *16:13 0.372848
22 *16:11 *16:12 0.124283
23 *16:10 *16:11 1.36711
24 *16:9 *16:10 0.124283
25 *16:8 *16:9 1.49139
26 *16:7 *16:8 0.124283
27 *16:6 *16:7 1.11854
28 *16:4 *16:6 0.124283
29 *16:3 *45:Q 0.372848
30 *16:2 *16:4 0.621413
31 *16:1 *16:3 1.4
32 *16:0 *16:2 1.4
33 *16:0 *16:1 0.621444
*END

*D_NET *17 0.00304406

*CONN
*I *45:SI I *C 11.165 9.135 *L 0.00276 *D SDFFRHQX1
*I *43:Q O *C 3.045 11.165 *L 0 *D SDFFRHQX1
*I *63:A I *C 20.445 9.425 *L 0.00264 *D NAND3X1
*I *73:A I *C 23.345 9.425 *L 0.00273 *D CLKINVX1
*I *56:A I *C 22.185 11.455 *L 0.00162 *D NOR2XL
*I *66:B0 I *C 23.345 6.235 *L 0.00265 *D AOI22X1

*CAP
1 *17:2 0.000791387
2 *17:4 0.000430404
3 *17:5 0.000388752
4 *17:6 4.1652e-05
5 *17:7 1.42176e-05
6 *17:8 9.95233e-05
7 *17:9 0.000166608
8 *17:10 0.000113741
9 *17:11 9.95233e-05
10 *17:12 0.000152724
11 *17:13 9.95233e-05
12 *17:15 4.1652e-05
13 *17:17 0.000156394
14 *17:18 0.000124956
15 *63:A 4.1652e-05
16 *17:21 0.000156394
17 *56:A 0.000124956

*RES
1 *17:21 *66:B0 1.4
2 *17:18 *56:A 1.11854
3 *17:17 *73:A 1.4
4 *17:17 *17:21 1.36718
5 *17:17 *17:20 0.220714
6 *17:15 *63:A 0.372848
7 *17:13 *17:18 1.4
8 *17:12 *17:17 1.4
9 *17:11 *43:Q 1.4
10 *17:10 *17:15 1.4
11 *17:10 *17:14 0.212143
12 *17:10 *17:13 0.870021
13 *17:9 *17:12 1.36711
14 *17:8 *17:11 0.870021
15 *17:7 *17:10 0.124289
16 *17:6 *17:9 0.124283
17 *17:5 *17:8 1.4
18 *17:4 *17:7 1.4
19 *17:4 *17:6 0.248565
20 *17:2 *17:5 3.47991
21 *17:2 *17:4 3.6042
22 *17:1 *45:SI 1.4
23 *17:1 *17:2 1.4
24 *17:0 *17:1 0.220714
*END

*D_NET *18 0.00258401

*CONN
*I *42:Q O *C 3.045 5.945 *L 0 *D SDFFRHQX1
*I *58:B I *C 14.065 3.915 *L 0.00165 *D NOR3BXL
*I *43:SI I *C 11.455 11.745 *L 0.00276 *D SDFFRHQX1
*I *71:A I *C 16.675 6.235 *L 0.00162 *D NOR2XL
*I *69:B I *C 16.385 4.205 *L 0.00284 *D NAND2BX1

*CAP
1 *18:3 4.1652e-05
2 *18:4 0.00013884
3 *18:5 0.000402636
4 *18:6 0.000388752
5 *18:7 0.000152724
6 *18:8 0.000312788
7 *18:9 8.33039e-05
8 *18:10 9.95233e-05
9 *18:11 0.000355441
10 *18:12 6.94199e-05
11 *18:13 9.95233e-05
12 *18:14 7.10881e-05
13 *18:15 5.5536e-05
14 *18:17 2.84352e-05
15 *18:18 2.84352e-05
16 *18:21 5.68705e-05
17 *18:23 9.95233e-05
18 *18:24 8.53057e-05
19 *18:25 1.42176e-05

*RES
1 *18:25 *69:B 1.4
2 *18:24 *18:25 0.124289
3 *18:23 *18:24 0.621444
4 *18:21 *18:23 0.248578
5 *18:18 *71:A 1.4
6 *18:18 *18:21 0.248578
7 *18:18 *18:20 0.220714
8 *18:17 *43:SI 1.4
9 *18:15 *18:18 1.4
10 *18:14 *18:17 0.248578
11 *18:13 *58:B 1.4
12 *18:12 *18:15 0.497131
13 *18:11 *18:14 0.372866
14 *18:10 *18:13 0.870021
15 *18:9 *18:12 0.124283
16 *18:8 *18:11 2.73435
17 *18:7 *18:10 1.4
18 *18:7 *18:9 0.621413
19 *18:6 *18:8 1.4
20 *18:6 *18:7 0.745696
21 *18:5 *18:6 2.73422
22 *18:4 *18:5 0.869979
23 *18:3 *18:4 0.372848
24 *18:1 *18:3 1.4
25 *18:1 *42:Q 1.4
26 *18:0 *18:1 0.220714
*END

*D_NET *19 0.00302029

*CONN
*I *46:Q O *C 3.045 4.495 *L 0 *D SDFFRHQX1
*I *42:SI I *C 11.455 6.525 *L 0.00276 *D SDFFRHQX1
*I *61:A I *C 21.605 3.625 *L 0.00156 *D NOR3XL
*I *72:A I *C 24.215 6.235 *L 0.00273 *D CLKINVX1
*I *66:A0 I *C 22.185 6.525 *L 0.00264 *D AOI22X1
*I *65:A I *C 22.185 9.135 *L 0.00157 *D NAND2XL

*CAP
1 *19:3 2.7768e-05
2 *19:4 4.1652e-05
3 *19:5 0.000388752
4 *19:6 0.000860807
5 *19:7 0.000610895
6 *19:8 8.53057e-05
7 *19:9 0.000124956
8 *19:10 0.000127959
9 *19:11 8.53057e-05
10 *19:12 7.10881e-05
11 *19:13 0.000113741
12 *19:14 5.68705e-05
13 *19:16 7.10881e-05
14 *19:17 7.10881e-05
15 *19:18 2.7768e-05
16 *19:21 0.000127959
17 *66:A0 2.7768e-05
18 *19:23 9.95233e-05

*RES
1 *19:23 *65:A 1.4
2 *19:21 *19:23 0.870021
3 *19:18 *66:A0 0.248565
4 *19:17 *19:21 0.248578
5 *19:16 *72:A 1.4
6 *19:14 *61:A 1.4
7 *19:13 *19:18 1.4
8 *19:13 *19:17 0.372866
9 *19:12 *19:16 0.621444
10 *19:11 *42:SI 1.4
11 *19:10 *19:14 0.497155
12 *19:10 *19:13 0.621444
13 *19:9 *19:12 1.4
14 *19:8 *19:11 0.745732
15 *19:7 *19:10 1.4
16 *19:7 *19:9 1.11854
17 *19:6 *19:8 1.4
18 *19:6 *19:7 4.34989
19 *19:5 *19:6 3.35563
20 *19:4 *19:5 0.124283
21 *19:3 *19:4 0.248565
22 *19:1 *19:3 1.4
23 *19:1 *46:Q 1.4
24 *19:0 *19:1 0.220714
*END

*D_NET *20 0.000227482

*CONN
*I *70:Y O *C 4.785 14.935 *L 0 *D NAND2XL
*I *62:C0 I *C 6.525 14.935 *L 0.00287 *D OAI211X1

*CAP
1 *20:1 2.84352e-05
2 *20:2 5.68705e-05
3 *20:3 4.26529e-05
4 *20:4 5.68705e-05
5 *20:5 4.26529e-05

*RES
1 *20:5 *62:C0 1.4
2 *20:4 *20:5 0.372866
3 *20:3 *20:4 0.124289
4 *20:2 *20:3 0.248578
5 *20:1 *20:2 0.248578
6 *70:Y *20:1 1.4
*END

*D_NET *21 0.000421191

*CONN
*I *54:B I *C 20.445 3.915 *L 0.00171 *D NOR2XL
*I *66:Y O *C 22.765 5.945 *L 0 *D AOI22X1

*CAP
1 *21:1 5.68705e-05
2 *21:2 5.68705e-05
3 *21:3 0.000111072
4 *21:4 0.000111072
5 *21:5 4.26529e-05
6 *21:6 4.26529e-05

*RES
1 *21:6 *66:Y 1.4
2 *21:5 *21:6 0.372866
3 *21:4 *21:5 1.4
4 *21:3 *21:4 0.994261
5 *21:2 *21:3 1.4
6 *21:1 *21:2 0.497155
7 *54:B *21:1 1.4
*END

*D_NET *22 0.00115317

*CONN
*I *71:Y O *C 17.255 6.815 *L 0 *D NOR2XL
*I *63:C I *C 21.025 9.425 *L 0.00285 *D NAND3X1
*I *65:B I *C 22.765 9.135 *L 0.00167 *D NAND2XL

*CAP
1 *71:Y 0.000124956
2 *22:1 0.000124956
3 *22:2 4.26529e-05
4 *22:3 0.000156394
5 *22:4 0.000170611
6 *22:5 0.00013884
7 *22:6 8.53057e-05
8 *22:7 0.00013884
9 *22:8 2.84352e-05
10 *22:9 7.10881e-05
11 *22:11 7.10881e-05

*RES
1 *22:11 *65:B 1.4
2 *22:9 *22:11 0.621444
3 *22:8 *63:C 1.4
4 *22:7 *22:9 1.4
5 *22:6 *22:8 0.248578
6 *22:5 *22:7 1.24283
7 *22:4 *22:6 0.497155
8 *22:3 *22:5 1.4
9 *22:3 *22:4 0.99431
10 *22:2 *22:3 0.372866
11 *22:1 *22:2 1.4
12 *71:Y *22:1 1.11854
*END

*D_NET *23 0.00118561

*CONN
*I *63:B I *C 20.735 9.715 *L 0.00285 *D NAND3X1
*I *67:B I *C 21.025 6.525 *L 0.00167 *D NAND2XL
*I *66:B1 I *C 23.055 6.235 *L 0.00283 *D AOI22X1
*I *60:B I *C 23.635 3.915 *L 0.00172 *D NOR3XL
*I *72:Y O *C 24.5875 6.235 *L 0 *D CLKINVX1

*CAP
1 *23:0 0.000113741
2 *23:1 5.68705e-05
3 *23:2 9.95233e-05
4 *23:3 5.5536e-05
5 *23:4 4.26529e-05
6 *23:6 6.94199e-05
7 *23:8 5.5536e-05
8 *23:9 6.94199e-05
9 *23:10 6.94199e-05
10 *23:11 4.26529e-05
11 *23:12 4.1652e-05
12 *23:13 0.000170611
13 *23:14 4.26529e-05
14 *23:15 4.26529e-05
15 *23:16 0.000170611
16 *23:18 4.26529e-05

*RES
1 *23:18 *72:Y 1.4
2 *23:16 *60:B 1.4
3 *23:15 *23:18 0.372866
4 *23:14 *66:B1 1.4
5 *23:13 *23:16 1.49146
6 *23:12 *23:15 1.4
7 *23:11 *23:14 0.372866
8 *23:10 *23:13 1.4
9 *23:10 *23:12 0.372848
10 *23:9 *23:11 1.4
11 *23:9 *23:10 0.248565
12 *23:8 *23:9 0.372848
13 *23:6 *23:8 0.124283
14 *23:4 *67:B 1.4
15 *23:3 *23:6 0.497131
16 *23:2 *63:B 1.4
17 *23:1 *23:4 0.372866
18 *23:1 *23:3 1.4
19 *23:0 *23:2 0.870021
20 *23:0 *23:1 0.124289
*END

*D_NET *24 0.00154993

*CONN
*I *69:Y O *C 16.385 4.785 *L 0 *D NAND2BX1
*I *64:A I *C 17.835 4.205 *L 0.00162 *D NOR2XL
*I *54:A I *C 20.155 4.205 *L 0.00162 *D NOR2XL
*I *61:C I *C 22.185 3.625 *L 0.00177 *D NOR3XL
*I *60:C I *C 23.925 3.625 *L 0.00177 *D NOR3XL

*CAP
1 *24:1 2.84352e-05
2 *24:2 9.95233e-05
3 *24:3 9.95233e-05
4 *24:4 0.000113741
5 *24:5 8.53057e-05
6 *24:6 2.84352e-05
7 *24:7 0.000127959
8 *24:9 9.95233e-05
9 *24:10 5.5536e-05
10 *24:11 0.000152724
11 *54:A 5.5536e-05
12 *24:13 0.000236028
13 *24:14 8.33039e-05
14 *24:15 7.10881e-05
15 *24:16 7.10881e-05
16 *24:17 7.10881e-05
17 *24:18 7.10881e-05

*RES
1 *24:18 *60:C 1.4
2 *24:17 *61:C 1.4
3 *24:16 *24:18 0.621444
4 *24:15 *24:17 0.621444
5 *24:14 *24:16 1.4
6 *24:13 *24:15 1.4
7 *24:13 *24:14 0.745696
8 *24:11 *24:13 1.36711
9 *24:10 *54:A 0.497131
10 *24:9 *24:11 1.4
11 *24:7 *24:10 1.4
12 *24:7 *24:9 0.870021
13 *24:6 *64:A 1.4
14 *24:5 *24:7 0.248578
15 *24:4 *24:6 0.248578
16 *24:4 *24:5 0.497155
17 *24:3 *24:4 0.248578
18 *24:2 *24:3 0.621444
19 *24:1 *24:2 0.248578
20 *69:Y *24:1 1.4
*END

*D_NET *25 0.00154659

*CONN
*I *67:A I *C 20.445 6.525 *L 0.00157 *D NAND2XL
*I *66:A1 I *C 22.475 5.945 *L 0.0028 *D AOI22X1
*I *61:B I *C 21.895 3.915 *L 0.00172 *D NOR3XL
*I *73:Y O *C 23.7175 9.425 *L 0 *D CLKINVX1
*I *60:A I *C 23.345 3.625 *L 0.00156 *D NOR3XL
*I *55:A I *C 23.345 11.455 *L 0.00162 *D NOR2XL

*CAP
1 *25:1 1.42176e-05
2 *25:2 1.42176e-05
3 *25:4 6.94199e-05
4 *25:5 9.71879e-05
5 *25:6 0.000152724
6 *25:7 0.000127959
7 *25:8 0.000124956
8 *25:10 0.000127959
9 *25:11 0.000156394
10 *25:14 6.94199e-05
11 *25:16 0.000156394
12 *25:17 6.94199e-05
13 *25:18 6.94199e-05
14 *73:Y 6.94199e-05
15 *25:23 2.84352e-05
16 *25:24 4.26529e-05
17 *25:25 8.53057e-05
18 *25:26 7.10881e-05

*RES
1 *25:26 *55:A 1.4
2 *25:25 *25:26 0.621444
3 *25:24 *25:25 0.124289
4 *25:23 *25:24 0.248578
5 *73:Y *25:23 1.4
6 *25:19 *60:A 1.4
7 *25:19 *25:21 0.220714
8 *25:18 *73:Y 0.621413
9 *25:17 *25:19 1.4
10 *25:16 *25:18 1.4
11 *25:14 *25:17 0.621413
12 *25:11 *25:16 1.36718
13 *25:10 *61:B 1.4
14 *25:10 *25:14 1.4
15 *25:9 *66:A1 1.4
16 *25:9 *25:12 0.220714
17 *25:8 *25:11 1.4
18 *25:7 *25:10 1.1186
19 *25:6 *25:9 1.4
20 *25:6 *25:8 1.11854
21 *25:5 *25:7 1.4
22 *25:5 *25:6 0.248565
23 *25:4 *25:5 0.621413
24 *25:2 *25:4 1.4
25 *25:1 *67:A 1.4
26 *25:1 *25:2 0.124289
27 *25:0 *25:1 0.212143
*END

*D_NET *26 0.0011505

*CONN
*I *51:A1 I *C 14.645 6.525 *L 0.00277 *D OAI22X1
*I *59:A I *C 18.705 11.455 *L 0.00273 *D CLKINVX1
*I *63:Y O *C 21.315 8.845 *L 0 *D NAND3X1

*CAP
1 *26:2 0.000194376
2 *26:4 0.000194376
3 *26:5 9.95233e-05
4 *26:6 0.0002417
5 *26:7 0.000124956
6 *26:8 0.000142176
7 *26:9 0.000124956
8 *26:11 1.42176e-05
9 *26:12 1.42176e-05

*RES
1 *26:12 *63:Y 1.4
2 *26:11 *26:13 0.0878571
3 *26:11 *26:12 0.124289
4 *26:9 *26:11 1.4
5 *26:8 *59:A 1.4
6 *26:7 *26:9 1.11854
7 *26:6 *26:8 1.24289
8 *26:6 *26:7 1.4
9 *26:5 *26:6 0.870021
10 *26:4 *26:5 1.4
11 *26:2 *26:4 1.73996
12 *26:1 *51:A1 1.4
13 *26:1 *26:2 1.4
14 *26:0 *26:1 0.220714
*END

*D_NET *27 0.0011776

*CONN
*I *58:C I *C 13.775 4.205 *L 0.00179 *D NOR3BXL
*I *64:B I *C 18.125 3.915 *L 0.00171 *D NOR2XL
*I *51:B1 I *C 15.225 6.525 *L 0.00282 *D OAI22X1
*I *67:Y O *C 21.025 5.945 *L 0 *D NAND2XL

*CAP
1 *27:2 6.94199e-05
2 *27:4 0.00020826
3 *27:5 0.00027768
4 *27:6 0.000142176
5 *27:7 0.00013884
6 *27:9 0.000142176
7 *27:10 9.95233e-05
8 *27:14 9.95233e-05

*RES
1 *27:14 *67:Y 1.4
2 *27:10 *27:14 0.870021
3 *27:9 *51:B1 1.4
4 *27:8 *64:B 1.4
5 *27:8 *27:11 0.220714
6 *27:7 *27:10 1.4
7 *27:6 *27:9 1.24289
8 *27:5 *27:8 1.4
9 *27:5 *27:7 1.24283
10 *27:4 *27:6 1.4
11 *27:4 *27:5 1.24283
12 *27:2 *27:4 0.621413
13 *27:1 *58:C 1.4
14 *27:1 *27:2 1.4
15 *27:0 *27:1 0.220714
*END

*D_NET *28 0.000394757

*CONN
*I *57:Y O *C 13.5675 6.525 *L 0 *D INVXL
*I *44:B0 I *C 14.935 9.135 *L 0.0028 *D OAI211X1

*CAP
1 *28:1 8.53057e-05
2 *28:2 8.53057e-05
3 *28:3 6.94199e-05
4 *28:4 6.94199e-05
5 *28:5 4.26529e-05
6 *28:6 4.26529e-05

*RES
1 *28:6 *44:B0 1.4
2 *28:5 *28:6 0.372866
3 *28:4 *28:5 1.4
4 *28:3 *28:4 0.621413
5 *28:2 *28:3 1.4
6 *28:1 *28:2 0.745732
7 *57:Y *28:1 1.4
*END

*D_NET *29 0.000452962

*CONN
*I *56:B I *C 22.475 11.745 *L 0.00171 *D NOR2XL
*I *65:Y O *C 22.765 9.715 *L 0 *D NAND2XL
*I *55:B I *C 23.635 11.745 *L 0.00171 *D NOR2XL

*CAP
1 *29:0 8.53057e-05
2 *29:1 7.10881e-05
3 *29:2 7.10881e-05
4 *29:3 2.84352e-05
5 *29:4 2.84352e-05
6 *29:6 4.1652e-05
7 *29:8 4.1652e-05
8 *29:9 4.26529e-05
9 *29:10 4.26529e-05

*RES
1 *29:10 *55:B 1.4
2 *29:9 *29:10 0.372866
3 *29:8 *29:9 1.4
4 *29:6 *29:8 0.372848
5 *29:4 *65:Y 1.4
6 *29:3 *29:6 1.4
7 *29:2 *56:B 1.4
8 *29:1 *29:4 0.248578
9 *29:1 *29:3 0.248578
10 *29:0 *29:2 0.621444
11 *29:0 *29:1 0.124289
*END

*D_NET *30 0.000398093

*CONN
*I *48:A1 I *C 16.675 9.135 *L 0.00274 *D OAI21X1
*I *52:Y O *C 18.125 12.035 *L 0 *D NOR2XL

*CAP
1 *30:1 8.53057e-05
2 *30:2 0.000142176
3 *30:3 0.000113741
4 *30:4 5.68705e-05

*RES
1 *30:4 *52:Y 1.4
2 *30:3 *30:4 0.497155
3 *30:2 *30:3 0.497155
4 *30:1 *30:2 0.745732
5 *48:A1 *30:1 1.4
*END

*D_NET *31 0.00185337

*CONN
*I *62:Y O *C 6.815 13.775 *L 0 *D OAI211X1
*I *48:A0 I *C 16.385 9.425 *L 0.00271 *D OAI21X1
*I *51:A0 I *C 14.355 6.525 *L 0.00265 *D OAI22X1

*CAP
1 *62:Y 5.5536e-05
2 *31:1 6.94199e-05
3 *31:2 0.000111072
4 *31:3 0.000111072
5 *31:4 5.5536e-05
6 *31:5 4.1652e-05
7 *31:6 0.000156394
8 *31:7 0.000156394
9 *31:8 0.000152724
10 *31:9 0.000263796
11 *31:10 0.000111072
12 *31:11 0.000199047
13 *31:12 7.10881e-05
14 *31:13 0.000213264
15 *31:14 7.10881e-05
16 *31:15 1.42176e-05

*RES
1 *31:15 *51:A0 1.4
2 *31:14 *48:A0 1.4
3 *31:13 *31:15 0.124289
4 *31:12 *31:14 0.621444
5 *31:11 *31:13 1.74004
6 *31:10 *31:12 1.4
7 *31:9 *31:11 1.4
8 *31:9 *31:10 0.994261
9 *31:8 *31:9 1.36711
10 *31:7 *31:8 1.4
11 *31:6 *31:7 1.36718
12 *31:5 *31:6 1.4
13 *31:4 *31:5 0.372848
14 *31:3 *31:4 0.124283
15 *31:2 *31:3 0.869979
16 *31:1 *31:2 0.124283
17 *62:Y *31:1 0.497131
*END

*D_NET *32 0.000699538

*CONN
*I *46:D I *C 10.005 4.205 *L 0.00276 *D SDFFRHQX1
*I *51:Y O *C 14.935 7.105 *L 0 *D OAI22X1

*CAP
1 *32:1 5.68705e-05
2 *32:2 5.68705e-05
3 *32:3 0.000236028
4 *32:4 0.000236028
5 *32:5 5.68705e-05
6 *32:6 5.68705e-05

*RES
1 *32:6 *51:Y 1.4
2 *32:5 *32:6 0.497155
3 *32:4 *32:5 1.4
4 *32:3 *32:4 2.11281
5 *32:2 *32:3 1.4
6 *32:1 *32:2 0.497155
7 *46:D *32:1 1.4
*END

*D_NET *33 0.00125623

*CONN
*I *49:D I *C 12.905 11.745 *L 0.00168 *D AND4XL
*I *52:B I *C 17.835 11.745 *L 0.00171 *D NOR2XL
*I *50:A I *C 15.805 14.355 *L 0.0017 *D MX2X1
*I *56:Y O *C 22.765 12.035 *L 0 *D NOR2XL

*CAP
1 *33:2 0.000124956
2 *33:4 0.000236028
3 *33:5 0.000305448
4 *33:6 5.68705e-05
5 *33:7 0.00020826
6 *33:9 7.10881e-05
7 *33:10 5.5536e-05
8 *33:13 8.53057e-05
9 *33:14 4.1652e-05
10 *33:15 7.10881e-05

*RES
1 *33:16 *33:19 0.220714
2 *33:16 *56:Y 1.4
3 *33:15 *50:A 1.4
4 *33:14 *33:16 1.4
5 *33:13 *33:15 0.621444
6 *33:10 *33:14 0.372848
7 *33:9 *33:13 0.124289
8 *33:8 *52:B 1.4
9 *33:8 *33:11 0.220714
10 *33:7 *33:10 0.124283
11 *33:6 *33:9 0.497155
12 *33:5 *33:8 1.4
13 *33:5 *33:7 1.73996
14 *33:4 *33:6 1.4
15 *33:4 *33:5 0.994261
16 *33:2 *33:4 1.11854
17 *33:1 *49:D 1.4
18 *33:1 *33:2 1.4
19 *33:0 *33:1 0.220714
*END

*D_NET *34 0.000426529

*CONN
*I *47:B I *C 15.805 11.745 *L 0.00167 *D NAND2XL
*I *50:Y O *C 17.545 14.355 *L 0 *D MX2X1

*CAP
1 *34:1 4.26529e-05
2 *34:2 0.000127959
3 *34:3 0.000170611
4 *34:4 8.53057e-05

*RES
1 *34:4 *50:Y 1.4
2 *34:3 *34:4 0.745732
3 *34:2 *34:3 0.745732
4 *34:1 *34:2 0.372866
5 *47:B *34:1 1.4
*END

*D_NET *35 0.00145394

*CONN
*I *62:B0 I *C 6.235 14.355 *L 0.0028 *D OAI211X1
*I *49:C I *C 13.485 11.745 *L 0.00174 *D AND4XL
*I *68:Y O *C 12.325 14.065 *L 0 *D NOR2XL
*I *47:A I *C 15.225 11.745 *L 0.00157 *D NAND2XL

*CAP
1 *35:0 5.68705e-05
2 *35:1 0.0003471
3 *35:2 5.68705e-05
4 *35:3 0.000374868
5 *35:5 0.000113741
6 *35:6 5.5536e-05
7 *35:7 4.26529e-05
8 *35:8 7.10881e-05
9 *35:9 8.33039e-05
10 *35:10 5.5536e-05
11 *35:12 5.5536e-05
12 *68:Y 5.5536e-05
13 *35:14 4.26529e-05
14 *35:15 4.26529e-05

*RES
1 *35:15 *47:A 1.4
2 *35:14 *35:15 0.372866
3 *35:12 *35:14 1.4
4 *35:10 *68:Y 0.497131
5 *35:9 *35:12 0.497131
6 *35:8 *49:C 1.4
7 *35:7 *35:10 1.4
8 *35:6 *35:9 0.248565
9 *35:5 *35:8 0.621444
10 *35:5 *35:7 0.372866
11 *35:3 *35:6 0.248565
12 *35:3 *35:5 1.4
13 *35:2 *62:B0 1.4
14 *35:1 *35:3 3.10707
15 *35:0 *35:2 0.497155
16 *35:0 *35:1 1.4
*END

*D_NET *36 0.000642667

*CONN
*I *49:Y O *C 14.935 11.455 *L 0 *D AND4XL
*I *45:D I *C 9.715 9.425 *L 0.00276 *D SDFFRHQX1

*CAP
1 *36:3 0.000236028
2 *36:4 0.000236028
3 *36:5 8.53057e-05
4 *36:6 8.53057e-05

*RES
1 *36:6 *45:D 1.4
2 *36:5 *36:6 0.745732
3 *36:4 *36:5 1.4
4 *36:3 *36:4 2.11281
5 *36:1 *36:3 1.4
6 *36:1 *49:Y 1.4
7 *36:0 *36:1 0.03
*END

*D_NET *37 0.00123447

*CONN
*I *44:C0 I *C 15.225 9.715 *L 0.00287 *D OAI211X1
*I *48:B0 I *C 17.255 9.425 *L 0.0028 *D OAI21X1
*I *53:Y O *C 22.5575 14.645 *L 0 *D CLKINVX1

*CAP
1 *37:2 9.71879e-05
2 *37:4 0.00013884
3 *37:5 6.94199e-05
4 *37:6 2.84352e-05
5 *37:7 0.00020826
6 *37:8 2.84352e-05
7 *37:9 0.000180492
8 *37:11 0.000113741
9 *37:12 0.000142176
10 *37:13 0.000127959
11 *37:14 9.95233e-05

*RES
1 *37:14 *53:Y 1.4
2 *37:13 *37:14 0.870021
3 *37:12 *37:13 0.248578
4 *37:11 *37:12 0.99431
5 *37:9 *37:11 1.4
6 *37:8 *48:B0 1.4
7 *37:7 *37:9 1.61567
8 *37:6 *37:8 0.248578
9 *37:5 *37:7 0.248565
10 *37:4 *37:6 1.4
11 *37:4 *37:5 0.372848
12 *37:2 *37:4 0.869979
13 *37:1 *44:C0 1.4
14 *37:1 *37:2 1.4
15 *37:0 *37:1 0.220714
*END

*D_NET *38 0.000948115

*CONN
*I *43:D I *C 10.005 11.455 *L 0.00276 *D SDFFRHQX1
*I *48:Y O *C 17.545 9.715 *L 0 *D OAI21X1

*CAP
1 *38:0 5.68705e-05
2 *38:1 4.1652e-05
3 *38:2 5.68705e-05
4 *38:3 5.5536e-05
5 *38:5 0.000180492
6 *38:6 0.000180492
7 *38:7 0.000166608
8 *38:8 0.000152724
9 *38:9 2.84352e-05
10 *38:10 2.84352e-05

*RES
1 *38:10 *48:Y 1.4
2 *38:9 *38:10 0.248578
3 *38:8 *38:9 1.4
4 *38:7 *38:8 1.36711
5 *38:6 *38:7 0.124283
6 *38:5 *38:6 1.49139
7 *38:3 *38:5 0.124283
8 *38:2 *43:D 1.4
9 *38:1 *38:3 0.372848
10 *38:0 *38:2 0.497155
11 *38:0 *38:1 1.4
*END

*D_NET *39 0.000312788

*CONN
*I *44:A1 I *C 14.645 9.135 *L 0.00278 *D OAI211X1
*I *47:Y O *C 15.805 11.165 *L 0 *D NAND2XL

*CAP
1 *39:1 7.10881e-05
2 *39:2 0.000127959
3 *39:3 8.53057e-05
4 *39:4 2.84352e-05

*RES
1 *39:4 *47:Y 1.4
2 *39:3 *39:4 0.248578
3 *39:2 *39:3 0.497155
4 *39:1 *39:2 0.621444
5 *44:A1 *39:1 1.4
*END

*D_NET *40 0.000755073

*CONN
*I *42:D I *C 10.005 6.235 *L 0.00276 *D SDFFRHQX1
*I *44:Y O *C 15.515 8.555 *L 0 *D OAI211X1

*CAP
1 *40:1 7.10881e-05
2 *40:2 7.10881e-05
3 *40:3 0.000263796
4 *40:4 0.000263796
5 *40:5 4.26529e-05
6 *40:6 4.26529e-05

*RES
1 *40:6 *44:Y 1.4
2 *40:5 *40:6 0.372866
3 *40:4 *40:5 1.4
4 *40:3 *40:4 2.36137
5 *40:2 *40:3 1.4
6 *40:1 *40:2 0.621444
7 *42:D *40:1 1.4
*END

