*SPEF "IEEE 1481-1998"
*DESIGN "pipeline_cpu"
*DATE "Fri Nov  7 17:21:39 2025"
*VENDOR "Cadence Design Systems, Inc."
*PROGRAM "Innovus"
*VERSION "21.15-s110_1"
*DESIGN_FLOW "PIN_CAP NONE" "NAME_SCOPE LOCAL"
*DIVIDER /
*DELIMITER :
*BUS_DELIMITER []
*T_UNIT 1 NS
*C_UNIT 1 PF
*R_UNIT 1 OHM
*L_UNIT 1 HENRY

// MMMC spef file for corner 'rccorner'

*NAME_MAP

*1 clk
*2 rst
*3 debug_reg_r4[31]
*4 debug_reg_r4[30]
*5 debug_reg_r4[29]
*6 debug_reg_r4[28]
*7 debug_reg_r4[27]
*8 debug_reg_r4[26]
*9 debug_reg_r4[25]
*10 debug_reg_r4[24]
*11 debug_reg_r4[23]
*12 debug_reg_r4[22]
*13 debug_reg_r4[21]
*14 debug_reg_r4[20]
*15 debug_reg_r4[19]
*16 debug_reg_r4[18]
*17 debug_reg_r4[17]
*18 debug_reg_r4[16]
*19 debug_reg_r4[15]
*20 debug_reg_r4[14]
*21 debug_reg_r4[13]
*22 debug_reg_r4[12]
*23 debug_reg_r4[11]
*24 debug_reg_r4[10]
*25 debug_reg_r4[9]
*26 debug_reg_r4[8]
*27 debug_reg_r4[7]
*28 debug_reg_r4[6]
*29 debug_reg_r4[5]
*30 debug_reg_r4[4]
*31 debug_reg_r4[3]
*32 debug_reg_r4[2]
*33 debug_reg_r4[1]
*34 debug_reg_r4[0]
*35 SE
*36 scan_in
*37 scan_out
*38 id_ex_rd_addr[2]
*39 id_ex_rd_addr[0]
*40 if_id_instr[4]
*41 if_id_instr[3]
*42 if_id_instr[2]
*43 ex_wb_rd_addr[2]
*44 ex_wb_rd_addr[0]
*45 ex_wb_alu_result[31]
*46 ex_wb_alu_result[30]
*47 ex_wb_alu_result[29]
*48 ex_wb_alu_result[28]
*49 ex_wb_alu_result[27]
*50 ex_wb_alu_result[26]
*51 ex_wb_alu_result[25]
*52 ex_wb_alu_result[24]
*53 ex_wb_alu_result[23]
*54 ex_wb_alu_result[22]
*55 ex_wb_alu_result[21]
*56 ex_wb_alu_result[20]
*57 ex_wb_alu_result[19]
*58 ex_wb_alu_result[18]
*59 ex_wb_alu_result[17]
*60 ex_wb_alu_result[16]
*61 ex_wb_alu_result[15]
*62 ex_wb_alu_result[14]
*63 ex_wb_alu_result[13]
*64 ex_wb_alu_result[12]
*65 ex_wb_alu_result[11]
*66 ex_wb_alu_result[10]
*67 ex_wb_alu_result[9]
*68 ex_wb_alu_result[8]
*69 ex_wb_alu_result[7]
*70 ex_wb_alu_result[6]
*71 ex_wb_alu_result[5]
*72 ex_wb_alu_result[4]
*73 ex_wb_alu_result[3]
*74 ex_wb_alu_result[2]
*75 ex_wb_alu_result[1]
*76 ex_wb_alu_result[0]
*77 id_ex_data2[31]
*78 id_ex_data2[30]
*79 id_ex_data2[29]
*80 id_ex_data2[28]
*81 id_ex_data2[27]
*82 id_ex_data2[26]
*83 id_ex_data2[25]
*84 id_ex_data2[24]
*85 id_ex_data2[23]
*86 id_ex_data2[22]
*87 id_ex_data2[21]
*88 id_ex_data2[20]
*89 id_ex_data2[19]
*90 id_ex_data2[18]
*91 id_ex_data2[17]
*92 id_ex_data2[16]
*93 id_ex_data2[15]
*94 id_ex_data2[14]
*95 id_ex_data2[13]
*96 id_ex_data2[12]
*97 id_ex_data2[11]
*98 id_ex_data2[10]
*99 id_ex_data2[9]
*100 id_ex_data2[8]
*101 id_ex_data2[7]
*102 id_ex_data2[6]
*103 id_ex_data2[5]
*104 id_ex_data2[4]
*105 id_ex_data2[3]
*106 id_ex_data2[2]
*107 id_ex_data2[1]
*108 id_ex_data2[0]
*109 pc[3]
*110 pc[2]
*111 pc[1]
*112 pc[0]
*113 reg_file\[1\][31]
*114 reg_file\[1\][30]
*115 reg_file\[1\][29]
*116 reg_file\[1\][28]
*117 reg_file\[1\][27]
*118 reg_file\[1\][26]
*119 reg_file\[1\][25]
*120 reg_file\[1\][24]
*121 reg_file\[1\][23]
*122 reg_file\[1\][22]
*123 reg_file\[1\][21]
*124 reg_file\[1\][20]
*125 reg_file\[1\][19]
*126 reg_file\[1\][18]
*127 reg_file\[1\][17]
*128 reg_file\[1\][16]
*129 reg_file\[1\][15]
*130 reg_file\[1\][14]
*131 reg_file\[1\][13]
*132 reg_file\[1\][12]
*133 reg_file\[1\][11]
*134 reg_file\[1\][10]
*135 reg_file\[1\][9]
*136 reg_file\[1\][8]
*137 reg_file\[1\][7]
*138 reg_file\[1\][6]
*139 reg_file\[1\][5]
*140 reg_file\[1\][4]
*141 reg_file\[1\][3]
*142 reg_file\[1\][2]
*143 reg_file\[1\][1]
*144 reg_file\[1\][0]
*145 reg_file\[5\][30]
*146 reg_file\[5\][29]
*147 reg_file\[5\][28]
*148 reg_file\[5\][27]
*149 reg_file\[5\][26]
*150 reg_file\[5\][25]
*151 reg_file\[5\][24]
*152 reg_file\[5\][23]
*153 reg_file\[5\][22]
*154 reg_file\[5\][21]
*155 reg_file\[5\][20]
*156 reg_file\[5\][19]
*157 reg_file\[5\][18]
*158 reg_file\[5\][17]
*159 reg_file\[5\][16]
*160 reg_file\[5\][15]
*161 reg_file\[5\][14]
*162 reg_file\[5\][13]
*163 reg_file\[5\][12]
*164 reg_file\[5\][11]
*165 reg_file\[5\][10]
*166 reg_file\[5\][9]
*167 reg_file\[5\][8]
*168 reg_file\[5\][7]
*169 reg_file\[5\][6]
*170 reg_file\[5\][5]
*171 reg_file\[5\][4]
*172 reg_file\[5\][3]
*173 reg_file\[5\][2]
*174 reg_file\[5\][1]
*175 reg_file\[5\][0]
*176 ex_alu_result[31]
*177 ex_alu_result[30]
*178 ex_alu_result[29]
*179 ex_alu_result[28]
*180 ex_alu_result[27]
*181 ex_alu_result[26]
*182 ex_alu_result[25]
*183 ex_alu_result[24]
*184 ex_alu_result[23]
*185 ex_alu_result[22]
*186 ex_alu_result[21]
*187 ex_alu_result[20]
*188 ex_alu_result[19]
*189 ex_alu_result[18]
*190 ex_alu_result[17]
*191 ex_alu_result[16]
*192 ex_alu_result[15]
*193 ex_alu_result[14]
*194 ex_alu_result[13]
*195 ex_alu_result[12]
*196 ex_alu_result[11]
*197 ex_alu_result[10]
*198 ex_alu_result[9]
*199 ex_alu_result[8]
*200 ex_alu_result[7]
*201 ex_alu_result[6]
*202 ex_alu_result[5]
*203 ex_alu_result[4]
*204 ex_alu_result[3]
*205 ex_alu_result[2]
*206 ex_alu_result[1]
*207 ex_alu_result[0]
*208 id_ex_data1[31]
*209 id_ex_data1[30]
*210 id_ex_data1[29]
*211 id_ex_data1[28]
*212 id_ex_data1[27]
*213 id_ex_data1[26]
*214 id_ex_data1[25]
*215 id_ex_data1[24]
*216 id_ex_data1[23]
*217 id_ex_data1[22]
*218 id_ex_data1[21]
*219 id_ex_data1[20]
*220 id_ex_data1[19]
*221 id_ex_data1[18]
*222 id_ex_data1[17]
*223 id_ex_data1[16]
*224 id_ex_data1[15]
*225 id_ex_data1[14]
*226 id_ex_data1[13]
*227 id_ex_data1[12]
*228 id_ex_data1[11]
*229 id_ex_data1[10]
*230 id_ex_data1[9]
*231 id_ex_data1[8]
*232 id_ex_data1[7]
*233 id_ex_data1[6]
*234 id_ex_data1[5]
*235 id_ex_data1[4]
*236 id_ex_data1[3]
*237 id_ex_data1[2]
*238 id_ex_data1[1]
*239 id_ex_data1[0]
*240 add_156_40_n_0
*241 add_156_40_n_1
*242 add_156_40_n_3
*243 add_156_40_n_5
*244 add_156_40_n_7
*245 add_156_40_n_9
*246 add_156_40_n_11
*247 add_156_40_n_13
*248 add_156_40_n_15
*249 add_156_40_n_17
*250 add_156_40_n_19
*251 add_156_40_n_21
*252 add_156_40_n_23
*253 add_156_40_n_25
*254 add_156_40_n_27
*255 add_156_40_n_29
*256 add_156_40_n_31
*257 add_156_40_n_33
*258 add_156_40_n_35
*259 add_156_40_n_37
*260 add_156_40_n_39
*261 add_156_40_n_41
*262 add_156_40_n_43
*263 add_156_40_n_45
*264 add_156_40_n_47
*265 add_156_40_n_49
*266 add_156_40_n_51
*267 add_156_40_n_53
*268 add_156_40_n_55
*269 add_156_40_n_57
*270 add_156_40_n_59
*271 add_156_40_n_62
*272 add_156_40_n_63
*273 ex_wb_reg_write
*274 id_ex_reg_write
*275 n_0
*276 n_1
*277 n_2
*278 n_3
*279 n_4
*280 n_5
*281 n_6
*282 n_7
*283 n_8
*284 n_9
*285 n_10
*286 n_11
*287 n_12
*288 n_13
*289 n_14
*290 n_15
*291 n_16
*292 n_17
*293 n_18
*294 n_19
*295 n_20
*296 n_21
*297 n_22
*298 n_23
*299 n_24
*300 n_25
*301 n_26
*302 n_27
*303 n_28
*304 n_29
*305 n_30
*306 n_31
*307 n_32
*308 n_33
*309 n_34
*310 n_35
*311 n_36
*312 n_37
*313 n_38
*314 n_39
*315 n_40
*316 n_41
*317 n_42
*318 n_43
*319 n_44
*320 n_45
*321 n_46
*322 n_47
*323 n_48
*324 n_49
*325 n_50
*326 n_51
*327 n_52
*328 n_53
*329 n_54
*330 n_55
*331 n_56
*332 n_57
*333 n_58
*334 n_59
*335 n_60
*336 n_61
*337 n_62
*338 n_63
*339 n_64
*340 n_65
*341 n_66
*342 n_67
*343 n_68
*344 n_69
*345 n_70
*346 n_71
*347 n_72
*348 n_73
*349 n_74
*350 n_75
*351 n_76
*352 n_77
*353 n_78
*354 n_79
*355 n_80
*356 n_81
*357 n_82
*358 n_83
*359 n_84
*360 n_85
*361 n_86
*362 n_87
*363 n_88
*364 n_89
*365 n_90
*366 n_91
*367 n_92
*368 n_93
*369 n_94
*370 n_95
*371 n_96
*372 n_97
*373 n_98
*374 n_99
*375 n_100
*376 n_101
*377 n_102
*378 n_103
*379 n_104
*380 n_105
*381 n_106
*382 n_107
*383 n_108
*384 n_109
*385 n_110
*386 n_111
*387 n_112
*388 n_113
*389 n_115
*390 n_116
*391 n_117
*392 n_118
*393 n_119
*394 n_120
*395 n_121
*396 n_122
*397 n_123
*398 n_124
*399 n_125
*400 n_126
*401 n_127
*402 n_128
*403 n_129
*404 n_130
*405 n_131
*406 n_132
*407 n_133
*408 n_134
*409 n_135
*410 n_136
*411 n_137
*412 n_138
*413 n_139
*414 n_140
*415 n_141
*416 n_142
*417 n_143
*418 n_144
*419 n_145
*420 n_146
*421 n_147
*422 n_148
*423 n_149
*424 n_150
*425 n_151
*426 n_152
*427 n_153
*428 n_154
*429 n_155
*430 n_156
*431 n_157
*432 n_158
*433 n_159
*434 n_160
*435 n_161
*436 n_162
*437 n_163
*438 n_164
*439 n_165
*440 n_166
*441 n_167
*442 n_168
*443 n_169
*444 n_170
*445 n_171
*446 n_172
*447 n_173
*448 n_174
*449 n_175
*450 n_176
*451 n_177
*452 n_178
*453 n_179
*454 n_180
*455 n_181
*456 n_182
*457 n_183
*458 n_184
*459 n_185
*460 n_186
*461 n_187
*462 n_188
*463 n_189
*464 n_190
*465 n_191
*466 n_192
*467 n_193
*468 n_194
*469 n_195
*470 n_196
*471 n_197
*472 n_198
*473 n_199
*474 n_200
*475 n_201
*476 n_202
*477 n_203
*478 n_204
*479 n_205
*480 n_206
*481 n_207
*482 n_208
*483 n_209
*484 n_210
*485 n_211
*486 n_212
*487 n_213
*488 n_214
*489 n_215
*490 n_216
*491 n_217
*492 n_218
*493 n_219
*494 n_220
*495 n_221
*496 n_222
*497 n_223
*498 n_224
*499 n_225
*500 n_226
*501 n_227
*502 n_228
*503 n_229
*504 n_230
*505 n_231
*506 n_232
*507 n_234
*508 n_235
*509 n_237
*510 n_238
*511 n_240
*512 n_241
*513 n_242
*514 n_243
*515 n_244
*516 n_245
*517 n_246
*518 n_247
*519 n_248
*520 n_249
*521 n_252
*522 g2712__2398
*523 g2713__5107
*524 g2714__6260
*525 g2715__4319
*526 g2716__8428
*527 g2717__5526
*528 g2718__6783
*529 ex_wb_rd_addr_reg\[0\]
*530 id_ex_rd_addr_reg\[0\]
*531 id_ex_rd_addr_reg\[2\]
*532 id_ex_reg_write_reg
*533 if_id_instr_reg\[2\]
*534 if_id_instr_reg\[3\]
*535 if_id_instr_reg\[4\]
*536 pc_reg\[0\]
*537 pc_reg\[1\]
*538 pc_reg\[2\]
*539 pc_reg\[3\]
*540 reg_file_reg\[1\]\[0\]
*541 reg_file_reg\[1\]\[1\]
*542 reg_file_reg\[1\]\[2\]
*543 reg_file_reg\[1\]\[3\]
*544 reg_file_reg\[1\]\[4\]
*545 reg_file_reg\[1\]\[5\]
*546 reg_file_reg\[1\]\[6\]
*547 reg_file_reg\[1\]\[7\]
*548 reg_file_reg\[1\]\[8\]
*549 reg_file_reg\[1\]\[9\]
*550 reg_file_reg\[1\]\[10\]
*551 reg_file_reg\[1\]\[11\]
*552 reg_file_reg\[1\]\[12\]
*553 reg_file_reg\[1\]\[13\]
*554 reg_file_reg\[1\]\[14\]
*555 reg_file_reg\[1\]\[15\]
*556 reg_file_reg\[1\]\[16\]
*557 reg_file_reg\[1\]\[17\]
*558 reg_file_reg\[1\]\[18\]
*559 reg_file_reg\[1\]\[19\]
*560 reg_file_reg\[1\]\[20\]
*561 reg_file_reg\[1\]\[21\]
*562 reg_file_reg\[1\]\[22\]
*563 reg_file_reg\[1\]\[23\]
*564 reg_file_reg\[1\]\[24\]
*565 reg_file_reg\[1\]\[25\]
*566 reg_file_reg\[1\]\[26\]
*567 reg_file_reg\[1\]\[27\]
*568 reg_file_reg\[1\]\[28\]
*569 reg_file_reg\[1\]\[29\]
*570 reg_file_reg\[1\]\[30\]
*571 reg_file_reg\[1\]\[31\]
*572 reg_file_reg\[4\]\[0\]
*573 reg_file_reg\[4\]\[1\]
*574 reg_file_reg\[4\]\[2\]
*575 reg_file_reg\[4\]\[3\]
*576 reg_file_reg\[4\]\[4\]
*577 reg_file_reg\[4\]\[5\]
*578 reg_file_reg\[4\]\[6\]
*579 reg_file_reg\[4\]\[7\]
*580 reg_file_reg\[4\]\[8\]
*581 reg_file_reg\[4\]\[9\]
*582 reg_file_reg\[4\]\[10\]
*583 reg_file_reg\[4\]\[11\]
*584 reg_file_reg\[4\]\[12\]
*585 reg_file_reg\[4\]\[13\]
*586 reg_file_reg\[4\]\[14\]
*587 reg_file_reg\[4\]\[15\]
*588 reg_file_reg\[4\]\[16\]
*589 reg_file_reg\[4\]\[17\]
*590 reg_file_reg\[4\]\[18\]
*591 reg_file_reg\[4\]\[19\]
*592 reg_file_reg\[4\]\[20\]
*593 reg_file_reg\[4\]\[21\]
*594 reg_file_reg\[4\]\[22\]
*595 reg_file_reg\[4\]\[23\]
*596 reg_file_reg\[4\]\[24\]
*597 reg_file_reg\[4\]\[25\]
*598 reg_file_reg\[4\]\[26\]
*599 reg_file_reg\[4\]\[27\]
*600 reg_file_reg\[4\]\[28\]
*601 reg_file_reg\[4\]\[29\]
*602 reg_file_reg\[4\]\[30\]
*603 reg_file_reg\[4\]\[31\]
*604 reg_file_reg\[5\]\[0\]
*605 reg_file_reg\[5\]\[1\]
*606 reg_file_reg\[5\]\[2\]
*607 reg_file_reg\[5\]\[3\]
*608 reg_file_reg\[5\]\[4\]
*609 reg_file_reg\[5\]\[5\]
*610 reg_file_reg\[5\]\[6\]
*611 reg_file_reg\[5\]\[7\]
*612 reg_file_reg\[5\]\[8\]
*613 reg_file_reg\[5\]\[9\]
*614 reg_file_reg\[5\]\[10\]
*615 reg_file_reg\[5\]\[11\]
*616 reg_file_reg\[5\]\[12\]
*617 reg_file_reg\[5\]\[13\]
*618 reg_file_reg\[5\]\[14\]
*619 reg_file_reg\[5\]\[15\]
*620 reg_file_reg\[5\]\[16\]
*621 reg_file_reg\[5\]\[17\]
*622 reg_file_reg\[5\]\[18\]
*623 reg_file_reg\[5\]\[19\]
*624 reg_file_reg\[5\]\[20\]
*625 reg_file_reg\[5\]\[21\]
*626 reg_file_reg\[5\]\[22\]
*627 reg_file_reg\[5\]\[23\]
*628 reg_file_reg\[5\]\[24\]
*629 reg_file_reg\[5\]\[25\]
*630 reg_file_reg\[5\]\[26\]
*631 reg_file_reg\[5\]\[27\]
*632 reg_file_reg\[5\]\[28\]
*633 reg_file_reg\[5\]\[29\]
*634 reg_file_reg\[5\]\[30\]
*635 reg_file_reg\[5\]\[31\]
*636 g2851__3680
*637 g2852__1617
*638 g2856
*639 g2858__2802
*640 g2859__1705
*641 g2861__8246
*642 g2862__7098
*643 g2864__6131
*644 g2865__1881
*645 g2866__5115
*646 g2867__7482
*647 g2868
*648 g2869__4733
*649 g2870__6161
*650 g2871__9315
*651 g2888__9945
*652 g2937__2883
*653 g2938__2346
*654 g2939__1666
*655 g2940__7410
*656 g2941__6417
*657 g2942__5477
*658 g2943__2398
*659 g2944__5107
*660 g2945__6260
*661 g2946__4319
*662 g2947__8428
*663 g2948__5526
*664 g2949__6783
*665 g2950__3680
*666 g2951__1617
*667 g2952__2802
*668 g2953__1705
*669 g2954__5122
*670 g2955__8246
*671 g2956__7098
*672 g2957__6131
*673 g2958__1881
*674 g2959__5115
*675 g2960__7482
*676 g2961__4733
*677 g2962__6161
*678 g2963__9315
*679 g2964__9945
*680 g2965__2883
*681 g2966__2346
*682 g2967__1666
*683 g2968__7410
*684 g2969__6417
*685 g2970
*686 g3003__5477
*687 g3004__2398
*688 g3005__5107
*689 g3006__6260
*690 g3007__4319
*691 g3008__8428
*692 g3009__5526
*693 g3010__6783
*694 g3011__3680
*695 g3012__1617
*696 g3013__2802
*697 g3014__1705
*698 g3015__5122
*699 g3016__8246
*700 g3017__7098
*701 g3018__6131
*702 g3019__1881
*703 g3020__5115
*704 g3021__7482
*705 g3022__4733
*706 g3023__6161
*707 g3024__9315
*708 g3025__9945
*709 g3026__2883
*710 g3027__2346
*711 g3028__1666
*712 g3029__7410
*713 g3030__6417
*714 g3031__5477
*715 g3032__2398
*716 g3033__5107
*717 g3034__6260
*718 g3035__4319
*719 g3036__8428
*720 g3037__5526
*721 g3038__6783
*722 g3039__3680
*723 g3040__1617
*724 g3041__2802
*725 g3042__1705
*726 g3043__5122
*727 g3044__8246
*728 g3045__7098
*729 g3046__6131
*730 g3047__1881
*731 g3048__5115
*732 g3049__7482
*733 g3050__4733
*734 g3051__6161
*735 g3052__9315
*736 g3053__9945
*737 g3054__2883
*738 g3055__2346
*739 g3056__1666
*740 g3057__7410
*741 g3058__6417
*742 g3059__5477
*743 g3060__2398
*744 g3061__5107
*745 g3062__6260
*746 g3063__4319
*747 g3064__8428
*748 g3065__5526
*749 g3066__6783
*750 g3067__3680
*751 g3068__1617
*752 g3069__2802
*753 g3070__1705
*754 g3071__5122
*755 g3073__8246
*756 g3074__7098
*757 g3075__6131
*758 g3079
*759 g3080
*760 g3081
*761 g3085
*762 g3086
*763 ex_wb_alu_result_reg\[0\]
*764 ex_wb_alu_result_reg\[1\]
*765 ex_wb_alu_result_reg\[2\]
*766 ex_wb_alu_result_reg\[3\]
*767 ex_wb_alu_result_reg\[4\]
*768 ex_wb_alu_result_reg\[5\]
*769 ex_wb_alu_result_reg\[6\]
*770 ex_wb_alu_result_reg\[7\]
*771 ex_wb_alu_result_reg\[8\]
*772 ex_wb_alu_result_reg\[9\]
*773 ex_wb_alu_result_reg\[10\]
*774 ex_wb_alu_result_reg\[11\]
*775 ex_wb_alu_result_reg\[12\]
*776 ex_wb_alu_result_reg\[13\]
*777 ex_wb_alu_result_reg\[14\]
*778 ex_wb_alu_result_reg\[15\]
*779 ex_wb_alu_result_reg\[16\]
*780 ex_wb_alu_result_reg\[17\]
*781 ex_wb_alu_result_reg\[18\]
*782 ex_wb_alu_result_reg\[19\]
*783 ex_wb_alu_result_reg\[20\]
*784 ex_wb_alu_result_reg\[21\]
*785 ex_wb_alu_result_reg\[22\]
*786 ex_wb_alu_result_reg\[23\]
*787 ex_wb_alu_result_reg\[24\]
*788 ex_wb_alu_result_reg\[25\]
*789 ex_wb_alu_result_reg\[26\]
*790 ex_wb_alu_result_reg\[27\]
*791 ex_wb_alu_result_reg\[28\]
*792 ex_wb_alu_result_reg\[29\]
*793 ex_wb_alu_result_reg\[30\]
*794 ex_wb_alu_result_reg\[31\]
*795 ex_wb_rd_addr_reg\[2\]
*796 ex_wb_reg_write_reg
*797 id_ex_data1_reg\[0\]
*798 id_ex_data1_reg\[1\]
*799 id_ex_data1_reg\[2\]
*800 id_ex_data1_reg\[3\]
*801 id_ex_data1_reg\[4\]
*802 id_ex_data1_reg\[5\]
*803 id_ex_data1_reg\[6\]
*804 id_ex_data1_reg\[7\]
*805 id_ex_data1_reg\[8\]
*806 id_ex_data1_reg\[9\]
*807 id_ex_data1_reg\[10\]
*808 id_ex_data1_reg\[11\]
*809 id_ex_data1_reg\[12\]
*810 id_ex_data1_reg\[13\]
*811 id_ex_data1_reg\[14\]
*812 id_ex_data1_reg\[15\]
*813 id_ex_data1_reg\[16\]
*814 id_ex_data1_reg\[17\]
*815 id_ex_data1_reg\[18\]
*816 id_ex_data1_reg\[19\]
*817 id_ex_data1_reg\[20\]
*818 id_ex_data1_reg\[21\]
*819 id_ex_data1_reg\[22\]
*820 id_ex_data1_reg\[23\]
*821 id_ex_data1_reg\[24\]
*822 id_ex_data1_reg\[25\]
*823 id_ex_data1_reg\[26\]
*824 id_ex_data1_reg\[27\]
*825 id_ex_data1_reg\[28\]
*826 id_ex_data1_reg\[29\]
*827 id_ex_data1_reg\[30\]
*828 id_ex_data1_reg\[31\]
*829 id_ex_data2_reg\[0\]
*830 id_ex_data2_reg\[1\]
*831 id_ex_data2_reg\[2\]
*832 id_ex_data2_reg\[3\]
*833 id_ex_data2_reg\[4\]
*834 id_ex_data2_reg\[5\]
*835 id_ex_data2_reg\[6\]
*836 id_ex_data2_reg\[7\]
*837 id_ex_data2_reg\[8\]
*838 id_ex_data2_reg\[9\]
*839 id_ex_data2_reg\[10\]
*840 id_ex_data2_reg\[11\]
*841 id_ex_data2_reg\[12\]
*842 id_ex_data2_reg\[13\]
*843 id_ex_data2_reg\[14\]
*844 id_ex_data2_reg\[15\]
*845 id_ex_data2_reg\[16\]
*846 id_ex_data2_reg\[17\]
*847 id_ex_data2_reg\[18\]
*848 id_ex_data2_reg\[19\]
*849 id_ex_data2_reg\[20\]
*850 id_ex_data2_reg\[21\]
*851 id_ex_data2_reg\[22\]
*852 id_ex_data2_reg\[23\]
*853 id_ex_data2_reg\[24\]
*854 id_ex_data2_reg\[25\]
*855 id_ex_data2_reg\[26\]
*856 id_ex_data2_reg\[27\]
*857 id_ex_data2_reg\[28\]
*858 id_ex_data2_reg\[29\]
*859 id_ex_data2_reg\[30\]
*860 id_ex_data2_reg\[31\]
*861 g4060__1881
*862 g4061__5115
*863 g4062__7482
*864 g4063__4733
*865 g4064__6161
*866 g4065__9315
*867 g4066__9945
*868 g4067__2883
*869 g4068__2346
*870 g4069__1666
*871 g4070__7410
*872 g4071__6417
*873 g4072__5477
*874 g4073__2398
*875 g4074__5107
*876 g4075__6260
*877 g4076__4319
*878 g4077__8428
*879 g4078__5526
*880 g4079__6783
*881 g4080__3680
*882 g4081__1617
*883 g4082__2802
*884 g4083__1705
*885 g4084__5122
*886 g4085__8246
*887 g4086__7098
*888 g4087__6131
*889 g4088__1881
*890 g4089__5115
*891 g4090__7482
*892 g4091__4733
*893 g4124__6161
*894 g4125
*895 g4126
*896 g4127
*897 g4128
*898 g4129
*899 g4130
*900 g4131
*901 g4132
*902 g4133
*903 g4134
*904 g4135
*905 g4136
*906 g4137
*907 g4138
*908 g4139
*909 g4140
*910 g4141__9315
*911 g4142__9945
*912 g4143__2883
*913 g4144__2346
*914 g4145__1666
*915 g4146__7410
*916 g4147__6417
*917 g4148__5477
*918 g4149__2398
*919 g4150__5107
*920 g4151__6260
*921 g4152__4319
*922 g4153__8428
*923 g4154__5526
*924 g4155__6783
*925 g4156__3680
*926 g4157
*927 g4158
*928 g4159
*929 g4160
*930 g4161
*931 g4162
*932 g4163
*933 g4164
*934 g4165
*935 g4166
*936 g4167
*937 g4168
*938 g4169
*939 g4170
*940 g4171
*941 g4172
*942 g4173__1617
*943 g4174__2802
*944 g4175__1705
*945 g4176__5122
*946 g4177__8246
*947 g4178__7098
*948 g4179__6131
*949 g4180__1881
*950 g4181__5115
*951 g4182__7482
*952 g4183__4733
*953 g4184__6161
*954 g4185__9315
*955 g4186__9945
*956 g4187__2883
*957 g4188__2346
*958 g4189__1666
*959 g4190__7410
*960 g4191__6417
*961 g4192__5477
*962 g4193__2398
*963 g4194__5107
*964 g4195__6260
*965 g4196__4319
*966 g4197__8428
*967 g4198__5526
*968 g4199__6783
*969 g4234__3680
*970 g4235__1617
*971 g4236__2802
*972 g4237
*973 add_156_40_g750__1705
*974 add_156_40_g751__5122
*975 add_156_40_g752__8246
*976 add_156_40_g753__7098
*977 add_156_40_g754__6131
*978 add_156_40_g755__1881
*979 add_156_40_g756__5115
*980 add_156_40_g757__7482
*981 add_156_40_g758__4733
*982 add_156_40_g759__6161
*983 add_156_40_g760__9315
*984 add_156_40_g761__9945
*985 add_156_40_g762__2883
*986 add_156_40_g763__2346
*987 add_156_40_g764__1666
*988 add_156_40_g765__7410
*989 add_156_40_g766__6417
*990 add_156_40_g767__5477
*991 add_156_40_g768__2398
*992 add_156_40_g769__5107
*993 add_156_40_g770__6260
*994 add_156_40_g771__4319
*995 add_156_40_g772__8428
*996 add_156_40_g773__5526
*997 add_156_40_g774__6783
*998 add_156_40_g775__3680
*999 add_156_40_g776__1617
*1000 add_156_40_g777__2802
*1001 add_156_40_g778__1705
*1002 add_156_40_g779__5122
*1003 add_156_40_g780__8246
*1004 add_156_40_g781__7098
*1005 add_156_40_g782__6131
*1006 add_156_40_g783__1881
*1007 add_156_40_g784__5115
*1008 g2


*PORTS

*1 I *C 49.735 101.79
*2 I *C 5.655 101.79
*3 O *C 69.745 0
*4 O *C 110.78 50.315
*5 O *C 68.005 101.79
*6 O *C 51.475 101.79
*7 O *C 42.775 101.79
*8 O *C 0 46.255
*9 O *C 45.385 0
*10 O *C 48.575 0
*11 O *C 47.125 0
*12 O *C 30.305 0
*13 O *C 14.065 0
*14 O *C 0 15.225
*15 O *C 0 30.305
*16 O *C 0 40.745
*17 O *C 0 52.055
*18 O *C 0 61.915
*19 O *C 0 75.835
*20 O *C 0 89.175
*21 O *C 15.225 101.79
*22 O *C 30.885 101.79
*23 O *C 41.905 101.79
*24 O *C 50.895 101.79
*25 O *C 62.205 101.79
*26 O *C 69.745 101.79
*27 O *C 83.375 101.79
*28 O *C 97.005 101.79
*29 O *C 110.78 88.015
*30 O *C 110.78 71.485
*31 O *C 110.78 60.175
*32 O *C 110.78 47.415
*33 O *C 110.78 36.105
*34 O *C 110.78 34.075
*35 I *C 57.565 101.79
*36 I *C 110.78 29.725
*37 O *C 66.555 0


*D_NET *1 0.0938703

*CONN
*I *598:CK I *C 38.433 40.236 *L 0.00176 *D SDFFRHQX1
*I *630:CK I *C 39.9405 41.052 *L 0.00176 *D SDFFRHQX1
*I *566:CK I *C 39.9555 40.6715 *L 0.00176 *D SDFFRHQX1
*I *823:CK I *C 40.203 41.108 *L 0.00176 *D SDFFRHQX1
*I *789:CK I *C 40.411 40.7865 *L 0.00176 *D SDFFRHQX1
*I *855:CK I *C 40.0255 41.157 *L 0.00176 *D SDFFRHQX1
*I *822:CK I *C 41.331 35.172 *L 0.00176 *D SDFFRHQX1
*I *854:CK I *C 41.399 35.0015 *L 0.00176 *D SDFFRHQX1
*I *565:CK I *C 42.4605 34.1645 *L 0.00176 *D SDFFRHQX1
*I *788:CK I *C 42.371 33.826 *L 0.00176 *D SDFFRHQX1
*I *629:CK I *C 42.6565 34.295 *L 0.00176 *D SDFFRHQX1
*I *597:CK I *C 43.1645 26.4625 *L 0.00176 *D SDFFRHQX1
*I *821:CK I *C 41.4235 24.433 *L 0.00176 *D SDFFRHQX1
*I *853:CK I *C 41.874 22.504 *L 0.00176 *D SDFFRHQX1
*I *787:CK I *C 42.9485 18.3915 *L 0.00176 *D SDFFRHQX1
*I *564:CK I *C 43.9315 18.7535 *L 0.00176 *D SDFFRHQX1
*I *820:CK I *C 38.349 17.105 *L 0.00176 *D SDFFRHQX1
*I *628:CK I *C 44.4265 15.3085 *L 0.00176 *D SDFFRHQX1
*I *852:CK I *C 39.24 14.722 *L 0.00176 *D SDFFRHQX1
*I *563:CK I *C 40.0285 11.4965 *L 0.00176 *D SDFFRHQX1
*I *786:CK I *C 37.9595 12.726 *L 0.00176 *D SDFFRHQX1
*I *627:CK I *C 40.882 9.754 *L 0.00176 *D SDFFRHQX1
*I *851:CK I *C 30.8725 14.277 *L 0.00176 *D SDFFRHQX1
*I *595:CK I *C 41.267 6.593 *L 0.00176 *D SDFFRHQX1
*I *819:CK I *C 27.859 16.7125 *L 0.00176 *D SDFFRHQX1
*I *596:CK I *C 45.3485 7.7765 *L 0.00176 *D SDFFRHQX1
*I *785:CK I *C 18.5895 11.891 *L 0.00176 *D SDFFRHQX1
*I *562:CK I *C 17.838 11.293 *L 0.00176 *D SDFFRHQX1
*I *626:CK I *C 14.597 9.213 *L 0.00176 *D SDFFRHQX1
*I *594:CK I *C 13.9615 6.617 *L 0.00176 *D SDFFRHQX1
*I *561:CK I *C 10.501 14.0305 *L 0.00176 *D SDFFRHQX1
*I *625:CK I *C 8.32 11.3205 *L 0.00176 *D SDFFRHQX1
*I *784:CK I *C 12.494 15.0255 *L 0.00176 *D SDFFRHQX1
*I *850:CK I *C 14.8885 16.7285 *L 0.00176 *D SDFFRHQX1
*I *624:CK I *C 8.271 19.962 *L 0.00176 *D SDFFRHQX1
*I *593:CK I *C 5.882 8.588 *L 0.00176 *D SDFFRHQX1
*I *592:CK I *C 3.935 17.7635 *L 0.00176 *D SDFFRHQX1
*I *818:CK I *C 17.0155 19.598 *L 0.00176 *D SDFFRHQX1
*I *849:CK I *C 13.277 24.8705 *L 0.00176 *D SDFFRHQX1
*I *817:CK I *C 15.698 28.481 *L 0.00176 *D SDFFRHQX1
*I *783:CK I *C 12.1975 26.1225 *L 0.00176 *D SDFFRHQX1
*I *560:CK I *C 11.501 26.7705 *L 0.00176 *D SDFFRHQX1
*I *782:CK I *C 13.545 36.79 *L 0.00176 *D SDFFRHQX1
*I *623:CK I *C 11.012 36.287 *L 0.00176 *D SDFFRHQX1
*I *591:CK I *C 5.691 36.114 *L 0.00176 *D SDFFRHQX1
*I *848:CK I *C 14.576 36.6605 *L 0.00176 *D SDFFRHQX1
*I *816:CK I *C 16.6895 37.1885 *L 0.00176 *D SDFFRHQX1
*I *559:CK I *C 14.146 37.2375 *L 0.00176 *D SDFFRHQX1
*I *815:CK I *C 17.6205 43.764 *L 0.00176 *D SDFFRHQX1
*I *847:CK I *C 15.462 43.6435 *L 0.00176 *D SDFFRHQX1
*I *558:CK I *C 15.3425 44.3875 *L 0.00176 *D SDFFRHQX1
*I *846:CK I *C 15.7595 57.063 *L 0.00176 *D SDFFRHQX1
*I *781:CK I *C 14.14 44.167 *L 0.00176 *D SDFFRHQX1
*I *622:CK I *C 12.0375 43.8725 *L 0.00176 *D SDFFRHQX1
*I *590:CK I *C 5.945 44.2295 *L 0.00176 *D SDFFRHQX1
*I *557:CK I *C 15.749 57.9325 *L 0.00176 *D SDFFRHQX1
*I *780:CK I *C 14.0525 57.194 *L 0.00176 *D SDFFRHQX1
*I *814:CK I *C 18.388 57.745 *L 0.00176 *D SDFFRHQX1
*I *621:CK I *C 11.4855 56.8585 *L 0.00176 *D SDFFRHQX1
*I *589:CK I *C 5.213 56.576 *L 0.00176 *D SDFFRHQX1
*I *813:CK I *C 18.3695 63.821 *L 0.00176 *D SDFFRHQX1
*I *845:CK I *C 15.3195 63.886 *L 0.00176 *D SDFFRHQX1
*I *556:CK I *C 14.1075 64.765 *L 0.00176 *D SDFFRHQX1
*I *779:CK I *C 12.4985 65.1775 *L 0.00176 *D SDFFRHQX1
*I *620:CK I *C 9.3175 65.032 *L 0.00176 *D SDFFRHQX1
*I *844:CK I *C 13.9635 72.5255 *L 0.00176 *D SDFFRHQX1
*I *778:CK I *C 9.852 79.172 *L 0.00176 *D SDFFRHQX1
*I *555:CK I *C 9.507 77.863 *L 0.00176 *D SDFFRHQX1
*I *812:CK I *C 17.4985 70.494 *L 0.00176 *D SDFFRHQX1
*I *588:CK I *C 4.406 65.661 *L 0.00176 *D SDFFRHQX1
*I *843:CK I *C 14.2955 83.3895 *L 0.00176 *D SDFFRHQX1
*I *811:CK I *C 18.3555 79.389 *L 0.00176 *D SDFFRHQX1
*I *842:CK I *C 20.6075 85.2865 *L 0.00176 *D SDFFRHQX1
*I *619:CK I *C 5.7905 83.868 *L 0.00176 *D SDFFRHQX1
*I *587:CK I *C 3.335 84.1505 *L 0.00176 *D SDFFRHQX1
*I *777:CK I *C 11.7835 87.197 *L 0.00176 *D SDFFRHQX1
*I *810:CK I *C 24.778 81.384 *L 0.00176 *D SDFFRHQX1
*I *776:CK I *C 21.6355 88.03 *L 0.00176 *D SDFFRHQX1
*I *841:CK I *C 33.795 83.005 *L 0.00176 *D SDFFRHQX1
*I *775:CK I *C 33.9885 85.1955 *L 0.00176 *D SDFFRHQX1
*I *554:CK I *C 10.07 89.1055 *L 0.00176 *D SDFFRHQX1
*I *552:CK I *C 34.351 85.4655 *L 0.00176 *D SDFFRHQX1
*I *553:CK I *C 20.485 89.9945 *L 0.00176 *D SDFFRHQX1
*I *615:CK I *C 40.6315 90.811 *L 0.00176 *D SDFFRHQX1
*I *774:CK I *C 40.718 83.521 *L 0.00176 *D SDFFRHQX1
*I *583:CK I *C 40.723 94.7935 *L 0.00176 *D SDFFRHQX1
*I *618:CK I *C 7.029 92.3285 *L 0.00176 *D SDFFRHQX1
*I *586:CK I *C 4.934 93.647 *L 0.00176 *D SDFFRHQX1
*I *585:CK I *C 13.73 96.441 *L 0.00176 *D SDFFRHQX1
*I *809:CK I *C 34.449 80.0895 *L 0.00176 *D SDFFRHQX1
*I *551:CK I *C 40.94 83.025 *L 0.00176 *D SDFFRHQX1
*I *839:CK I *C 49.336 81.2615 *L 0.00176 *D SDFFRHQX1
*I *616:CK I *C 33.091 92.441 *L 0.00176 *D SDFFRHQX1
*I *617:CK I *C 14.1445 94.0695 *L 0.00176 *D SDFFRHQX1
*I *808:CK I *C 40.4055 79.2335 *L 0.00176 *D SDFFRHQX1
*I *584:CK I *C 32.697 95.5095 *L 0.00176 *D SDFFRHQX1
*I *614:CK I *C 50.7705 91.03 *L 0.00176 *D SDFFRHQX1
*I *550:CK I *C 52.1805 83.1815 *L 0.00176 *D SDFFRHQX1
*I *582:CK I *C 51.023 95.0815 *L 0.00176 *D SDFFRHQX1
*I *840:CK I *C 40.2805 81.3155 *L 0.00176 *D SDFFRHQX1
*I *773:CK I *C 50.705 83.462 *L 0.00176 *D SDFFRHQX1
*I *807:CK I *C 50.7125 79.1725 *L 0.00176 *D SDFFRHQX1
*I *600:CK I *C 41.0225 65.8905 *L 0.00176 *D SDFFRHQX1
*I *568:CK I *C 40.8655 61.665 *L 0.00176 *D SDFFRHQX1
*I *581:CK I *C 61.618 95.157 *L 0.00176 *D SDFFRHQX1
*I *632:CK I *C 41.2445 61.8395 *L 0.00176 *D SDFFRHQX1
*I *791:CK I *C 41.9595 60.609 *L 0.00176 *D SDFFRHQX1
*I *613:CK I *C 61.62 91.5665 *L 0.00176 *D SDFFRHQX1
*P *1 I *C 49.735 101.79 *L 0
*I *612:CK I *C 68.446 93.1955 *L 0.00176 *D SDFFRHQX1
*I *771:CK I *C 68.5585 85.183 *L 0.00176 *D SDFFRHQX1
*I *857:CK I *C 42.33 60.0815 *L 0.00176 *D SDFFRHQX1
*I *825:CK I *C 42.389 59.7875 *L 0.00176 *D SDFFRHQX1
*I *631:CK I *C 38.433 57.807 *L 0.00176 *D SDFFRHQX1
*I *567:CK I *C 38.287 57.288 *L 0.00176 *D SDFFRHQX1
*I *580:CK I *C 68.681 95.6695 *L 0.00176 *D SDFFRHQX1
*I *548:CK I *C 68.114 84.419 *L 0.00176 *D SDFFRHQX1
*I *837:CK I *C 67.467 82.1485 *L 0.00176 *D SDFFRHQX1
*I *599:CK I *C 36.9275 59.2655 *L 0.00176 *D SDFFRHQX1
*I *805:CK I *C 67.289 78.9385 *L 0.00176 *D SDFFRHQX1
*I *856:CK I *C 39.439 57.0585 *L 0.00176 *D SDFFRHQX1
*I *790:CK I *C 39.2455 55.8235 *L 0.00176 *D SDFFRHQX1
*I *824:CK I *C 39.5685 56.3815 *L 0.00176 *D SDFFRHQX1
*I *804:CK I *C 74.3025 80.452 *L 0.00176 *D SDFFRHQX1
*I *806:CK I *C 62.15 78.369 *L 0.00176 *D SDFFRHQX1
*I *838:CK I *C 61.8675 80.782 *L 0.00176 *D SDFFRHQX1
*I *836:CK I *C 76.6775 84.674 *L 0.00176 *D SDFFRHQX1
*I *772:CK I *C 61.902 82.936 *L 0.00176 *D SDFFRHQX1
*I *549:CK I *C 62.398 81.6065 *L 0.00176 *D SDFFRHQX1
*I *770:CK I *C 82.523 88.3755 *L 0.00176 *D SDFFRHQX1
*I *547:CK I *C 81.66 89.667 *L 0.00176 *D SDFFRHQX1
*I *611:CK I *C 87.023 94.0575 *L 0.00176 *D SDFFRHQX1
*I *835:CK I *C 88.459 84.887 *L 0.00176 *D SDFFRHQX1
*I *579:CK I *C 87.516 96.2955 *L 0.00176 *D SDFFRHQX1
*I *769:CK I *C 91.6765 86.9725 *L 0.00176 *D SDFFRHQX1
*I *834:CK I *C 90.4355 79.039 *L 0.00176 *D SDFFRHQX1
*I *546:CK I *C 93.172 88.806 *L 0.00176 *D SDFFRHQX1
*I *801:CK I *C 84.378 63.688 *L 0.00176 *D SDFFRHQX1
*I *803:CK I *C 83.918 80.3055 *L 0.00176 *D SDFFRHQX1
*I *802:CK I *C 85.906 72.68 *L 0.00176 *D SDFFRHQX1
*I *577:CK I *C 99.325 85.712 *L 0.00176 *D SDFFRHQX1
*I *609:CK I *C 96.5415 85.532 *L 0.00176 *D SDFFRHQX1
*I *768:CK I *C 92.2765 76.9475 *L 0.00176 *D SDFFRHQX1
*I *610:CK I *C 95.569 92.465 *L 0.00176 *D SDFFRHQX1
*I *545:CK I *C 93.269 77.7455 *L 0.00176 *D SDFFRHQX1
*I *544:CK I *C 87.755 63.795 *L 0.00176 *D SDFFRHQX1
*I *578:CK I *C 97.725 93.9465 *L 0.00176 *D SDFFRHQX1
*I *833:CK I *C 87.9225 64.2425 *L 0.00176 *D SDFFRHQX1
*I *767:CK I *C 88.8125 64.1235 *L 0.00176 *D SDFFRHQX1
*I *608:CK I *C 92.4615 64.791 *L 0.00176 *D SDFFRHQX1
*I *800:CK I *C 84.9435 57.7795 *L 0.00176 *D SDFFRHQX1
*I *576:CK I *C 98.458 65.5335 *L 0.00176 *D SDFFRHQX1
*I *832:CK I *C 87.616 57.6345 *L 0.00176 *D SDFFRHQX1
*I *766:CK I *C 88.7 56.97 *L 0.00176 *D SDFFRHQX1
*I *543:CK I *C 87.4765 56.9575 *L 0.00176 *D SDFFRHQX1
*I *607:CK I *C 90.4665 57.295 *L 0.00176 *D SDFFRHQX1
*I *575:CK I *C 97.3985 56.9225 *L 0.00176 *D SDFFRHQX1
*I *574:CK I *C 98.033 41.8955 *L 0.00176 *D SDFFRHQX1
*I *606:CK I *C 90.2875 43.2275 *L 0.00176 *D SDFFRHQX1
*I *765:CK I *C 90.4295 42.7505 *L 0.00176 *D SDFFRHQX1
*I *542:CK I *C 90.45 41.0275 *L 0.00176 *D SDFFRHQX1
*I *830:CK I *C 89.264 35.217 *L 0.00176 *D SDFFRHQX1
*I *605:CK I *C 85.3125 35.145 *L 0.00176 *D SDFFRHQX1
*I *831:CK I *C 89.315 44.0045 *L 0.00176 *D SDFFRHQX1
*I *799:CK I *C 87.6205 42.9975 *L 0.00176 *D SDFFRHQX1
*I *798:CK I *C 88.856 33.126 *L 0.00176 *D SDFFRHQX1
*I *797:CK I *C 83.455 25.7315 *L 0.00176 *D SDFFRHQX1
*I *764:CK I *C 90.6365 33.8025 *L 0.00176 *D SDFFRHQX1
*I *541:CK I *C 91.248 30.763 *L 0.00176 *D SDFFRHQX1
*I *540:CK I *C 92.315 22.5065 *L 0.00176 *D SDFFRHQX1
*I *763:CK I *C 95.3645 29.704 *L 0.00176 *D SDFFRHQX1
*I *536:CK I *C 91.8485 11.42 *L 0.00176 *D SDFFRHQX1
*I *535:CK I *C 87.719 11.9215 *L 0.00176 *D SDFFRHQX1
*I *534:CK I *C 86.1865 11.889 *L 0.00176 *D SDFFRHQX1
*I *533:CK I *C 77.1475 11.1425 *L 0.00176 *D SDFFRHQX1
*I *573:CK I *C 97.947 33.348 *L 0.00176 *D SDFFRHQX1
*I *537:CK I *C 94.652 11.5585 *L 0.00176 *D SDFFRHQX1
*I *538:CK I *C 95.316 12.0085 *L 0.00176 *D SDFFRHQX1
*I *531:CK I *C 67.075 11.395 *L 0.00176 *D SDFFRHQX1
*I *532:CK I *C 66.9925 10.711 *L 0.00176 *D SDFFRHQX1
*I *539:CK I *C 95.466 13.281 *L 0.00176 *D SDFFRHQX1
*I *530:CK I *C 66.0365 26.9465 *L 0.00176 *D SDFFRHQX1
*I *796:CK I *C 66.9655 18.4135 *L 0.00176 *D SDFFRHQX1
*I *795:CK I *C 65.305 17.115 *L 0.00176 *D SDFFRHQX1
*I *529:CK I *C 64.767 27.8335 *L 0.00176 *D SDFFRHQX1
*I *572:CK I *C 68.321 35.9245 *L 0.00176 *D SDFFRHQX1
*I *829:CK I *C 70.016 36.3115 *L 0.00176 *D SDFFRHQX1
*I *604:CK I *C 68.394 34.596 *L 0.00176 *D SDFFRHQX1
*I *794:CK I *C 64.226 42.0355 *L 0.00176 *D SDFFRHQX1
*I *635:CK I *C 63.742 38.7925 *L 0.00176 *D SDFFRHQX1
*I *603:CK I *C 65.233 39.092 *L 0.00176 *D SDFFRHQX1
*I *827:CK I *C 64.104 54.699 *L 0.00176 *D SDFFRHQX1
*I *860:CK I *C 64.089 39.208 *L 0.00176 *D SDFFRHQX1
*I *571:CK I *C 64.414 40.609 *L 0.00176 *D SDFFRHQX1
*I *828:CK I *C 64.829 40.833 *L 0.00176 *D SDFFRHQX1
*I *859:CK I *C 63.61 48.259 *L 0.00176 *D SDFFRHQX1
*I *793:CK I *C 64.576 57.4155 *L 0.00176 *D SDFFRHQX1
*I *634:CK I *C 64.8745 58.4725 *L 0.00176 *D SDFFRHQX1
*I *826:CK I *C 61.4285 59.672 *L 0.00176 *D SDFFRHQX1
*I *570:CK I *C 65.0175 58.6555 *L 0.00176 *D SDFFRHQX1
*I *858:CK I *C 61.3695 59.4145 *L 0.00176 *D SDFFRHQX1
*I *602:CK I *C 66.3535 59.5075 *L 0.00176 *D SDFFRHQX1
*I *792:CK I *C 60.9885 60.639 *L 0.00176 *D SDFFRHQX1
*I *569:CK I *C 61.6855 61.818 *L 0.00176 *D SDFFRHQX1
*I *601:CK I *C 61.9285 64.833 *L 0.00176 *D SDFFRHQX1
*I *633:CK I *C 61.8875 61.873 *L 0.00176 *D SDFFRHQX1

*CAP
1 *1:1 5.02819e-07
2 *1:2 4.07283e-05
3 *1:3 4.02255e-05
4 *1:4 6.89686e-05
5 *1:5 8.27623e-05
6 *1:6 2.75874e-05
7 *1:7 1.91071e-05
8 *1:8 1.37937e-05
9 *1:9 3.77114e-06
10 *1:10 4.02255e-06
11 *1:11 2.23754e-05
12 *1:12 1.25705e-05
13 *1:13 8.0451e-06
14 *1:14 3.26832e-06
15 *1:15 4.02255e-06
16 *1:16 0.000293897
17 *1:17 9.30214e-06
18 *1:18 2.01127e-06
19 *1:21 2.26268e-06
20 *1:22 0.000279064
21 *1:23 7.03946e-06
22 *1:26 4.13811e-05
23 *1:28 9.6556e-05
24 *1:29 5.51748e-05
25 *1:30 3.26832e-06
26 *1:31 4.37452e-05
27 *1:32 1.20676e-05
28 *1:33 5.38016e-05
29 *1:34 2.51409e-07
30 *1:35 1.23191e-05
31 *1:36 1.37937e-05
32 *1:37 2.84092e-05
33 *1:39 3.77114e-06
34 *1:40 1.37937e-05
35 *1:41 1.25705e-06
36 *1:42 0.000389433
37 *1:44 3.51973e-06
38 *1:46 5.78241e-06
39 *1:47 0.0004573
40 *1:48 9.55355e-06
41 *1:50 2.75874e-05
42 *1:51 9.07454e-05
43 *1:52 6.03382e-06
44 *1:53 2.75874e-05
45 *1:54 8.14558e-05
46 *1:56 3.51973e-06
47 *1:57 1.62912e-05
48 *1:58 6.51647e-05
49 *1:59 8.54792e-06
50 *1:60 0.00012244
51 *1:61 1.89994e-05
52 *1:62 5.02819e-06
53 *1:63 0.000306101
54 *1:64 2.4277e-05
55 *1:66 4.88735e-05
56 *1:67 0.000183661
57 *1:68 5.2776e-06
58 *1:69 4.88735e-05
59 *1:70 8.14558e-05
60 *1:72 1.58328e-06
61 *1:73 6.51647e-05
62 *1:74 6.51647e-05
63 *1:75 3.16656e-06
64 *1:76 4.88735e-05
65 *1:77 3.19295e-05
66 *1:78 9.18303e-05
67 *1:79 1.58328e-06
68 *1:80 1.26663e-05
69 *1:81 3.79988e-05
70 *1:82 9.18303e-05
71 *1:84 1.29301e-05
72 *1:85 6.06925e-06
73 *1:86 0.000114038
74 *1:87 2.6388e-07
75 *1:89 0.000179203
76 *1:91 0.000107135
77 *1:92 6.51647e-05
78 *1:93 0.000107135
79 *1:94 7.91641e-06
80 *1:95 0.000293241
81 *1:96 1.18746e-05
82 *1:97 0.00027695
83 *1:98 1.62912e-05
84 *1:99 3.9582e-06
85 *1:100 4.48596e-06
86 *1:101 2.66519e-05
87 *1:103 9.23581e-06
88 *1:104 0.000171258
89 *1:105 4.74984e-06
90 *1:106 2.90268e-06
91 *1:107 0.000141704
92 *1:110 0.000130329
93 *1:111 8.14558e-05
94 *1:112 0.000472444
95 *1:113 3.25823e-05
96 *1:114 2.84991e-05
97 *1:115 3.64155e-05
98 *1:116 0.000390988
99 *1:117 0.000120329
100 *1:118 3.56238e-05
101 *1:119 4.24847e-05
102 *1:120 9.18303e-05
103 *1:121 0.000267311
104 *1:122 7.12477e-06
105 *1:123 6.06925e-06
106 *1:124 0.000118218
107 *1:125 7.12477e-06
108 *1:126 0.000139857
109 *1:129 2.69158e-05
110 *1:130 0.000162912
111 *1:132 3.25823e-05
112 *1:133 5.27761e-07
113 *1:134 0.000162912
114 *1:135 0.000260659
115 *1:137 6.12202e-05
116 *1:138 0.000228076
117 *1:139 2.69158e-05
118 *1:140 0.000155162
119 *1:141 3.53599e-05
120 *1:142 3.00823e-05
121 *1:143 0.000100538
122 *1:144 0.000411217
123 *1:145 3.72071e-05
124 *1:146 3.16656e-06
125 *1:147 6.59701e-06
126 *1:148 0.000411217
127 *1:149 1.84716e-06
128 *1:152 0.000132787
129 *1:154 0.000132787
130 *1:155 9.3946e-05
131 *1:156 0.000140919
132 *1:157 2.21312e-05
133 *1:158 0.000234865
134 *1:159 2.7982e-05
135 *1:160 5.24027e-05
136 *1:161 0.000187892
137 *1:162 5.85079e-06
138 *1:163 5.26571e-05
139 *1:164 2.95083e-05
140 *1:166 2.54382e-07
141 *1:167 0.000162296
142 *1:169 0.000172234
143 *1:170 0.000265575
144 *1:171 0.000172234
145 *1:172 1.56577e-05
146 *1:173 0.000132787
147 *1:174 0.000132787
148 *1:175 1.56577e-05
149 *1:176 1.56577e-05
150 *1:177 0.000162296
151 *1:178 1.47542e-05
152 *1:179 4.07011e-06
153 *1:180 1.56577e-05
154 *1:181 0.000118033
155 *1:182 3.13153e-05
156 *1:183 0.000156577
157 *1:184 6.61393e-06
158 *1:185 4.57888e-06
159 *1:186 0.000132787
160 *1:187 7.82883e-05
161 *1:188 3.13153e-05
162 *1:189 0.000156577
163 *1:190 2.54382e-06
164 *1:191 9.9209e-06
165 *1:192 5.90166e-05
166 *1:193 0.000156577
167 *1:194 7.82883e-05
168 *1:195 1.78067e-06
169 *1:196 6.86831e-06
170 *1:198 5.34202e-06
171 *1:199 0.00020355
172 *1:200 0.000156577
173 *1:201 4.57888e-06
174 *1:202 6.10517e-06
175 *1:203 0.00015034
176 *1:205 0.000219207
177 *1:206 5.90166e-05
178 *1:207 1.0684e-05
179 *1:208 4.32449e-06
180 *1:209 2.7982e-06
181 *1:210 0.000140673
182 *1:211 1.56577e-05
183 *1:212 4.14643e-05
184 *1:213 0.000181883
185 *1:214 6.10517e-06
186 *1:217 0.000125261
187 *1:218 0.000118033
188 *1:219 4.37537e-05
189 *1:220 0.000123121
190 *1:221 0.000234865
191 *1:223 0.000125261
192 *1:224 0.000118033
193 *1:225 2.28944e-06
194 *1:226 2.54382e-07
195 *1:227 0.000234865
196 *1:228 1.78067e-06
197 *1:229 0.000109604
198 *1:232 1.11928e-05
199 *1:233 5.08764e-06
200 *1:234 9.3946e-05
201 *1:235 1.56577e-05
202 *1:236 1.22103e-05
203 *1:237 3.30697e-06
204 *1:238 1.34822e-05
205 *1:239 0.000324747
206 *1:240 1.01753e-06
207 *1:242 1.60261e-05
208 *1:243 0.000445263
209 *1:245 2.54382e-06
210 *1:246 0.000120517
211 *1:247 8.88601e-05
212 *1:249 4.44301e-05
213 *1:250 0.00013329
214 *1:251 4.44301e-05
215 *1:252 7.01102e-05
216 *1:253 8.88601e-05
217 *1:254 4.41548e-06
218 *1:255 7.41804e-05
219 *1:256 6.23362e-06
220 *1:257 4.44301e-05
221 *1:258 9.86989e-06
222 *1:259 4.07011e-06
223 *1:260 1.2727e-05
224 *1:261 2.72721e-05
225 *1:262 5.45441e-06
226 *1:264 6.49335e-06
227 *1:265 0.000469339
228 *1:268 0.000484923
229 *1:269 2.33761e-06
230 *1:270 0.00010367
231 *1:271 4.51937e-05
232 *1:273 0.0001481
233 *1:274 2.962e-05
234 *1:275 4.44301e-05
235 *1:276 8.07773e-05
236 *1:277 0.0002962
237 *1:278 7.53229e-05
238 *1:279 8.38941e-05
239 *1:280 9.35042e-06
240 *1:281 0.00026658
241 *1:282 0.000105452
242 *1:283 3.11681e-06
243 *1:284 1.63632e-05
244 *1:285 5.19468e-07
245 *1:286 3.01291e-05
246 *1:287 1.481e-05
247 *1:289 7.01282e-06
248 *1:290 2.33761e-06
249 *1:291 0.00013329
250 *1:292 1.481e-05
251 *1:294 1.81814e-06
252 *1:295 0.00016291
253 *1:296 1.481e-05
254 *1:297 1.29867e-06
255 *1:299 4.44301e-05
256 *1:300 3.89601e-06
257 *1:301 1.29867e-06
258 *1:302 4.93495e-06
259 *1:303 0.000337654
260 *1:304 4.67521e-06
261 *1:305 5.45441e-06
262 *1:306 3.63628e-06
263 *1:307 0.000365446
264 *1:308 7.79202e-07
265 *1:309 4.15574e-06
266 *1:311 2.38955e-05
267 *1:312 3.89601e-06
268 *1:315 0.00010367
269 *1:317 0.00011848
270 *1:318 3.01291e-05
271 *1:319 4.44301e-05
272 *1:320 3.29862e-05
273 *1:321 8.57122e-06
274 *1:322 2.962e-05
275 *1:323 2.85707e-06
276 *1:324 1.48048e-05
277 *1:325 0.000607878
278 *1:327 6.23362e-06
279 *1:328 0.000592814
280 *1:329 1.50646e-05
281 *1:331 6.221e-05
282 *1:332 2.962e-05
283 *1:333 6.221e-05
284 *1:334 0.00013329
285 *1:335 8.19079e-05
286 *1:336 1.19478e-05
287 *1:337 0.000414681
288 *1:338 9.55592e-05
289 *1:339 1.58438e-05
290 *1:340 3.11681e-06
291 *1:341 0.00031101
292 *1:342 2.67673e-05
293 *1:343 2.40906e-06
294 *1:344 3.89601e-06
295 *1:345 3.37654e-06
296 *1:346 1.53243e-05
297 *1:347 3.53328e-05
298 *1:348 9.3315e-05
299 *1:351 2.59734e-07
300 *1:352 1.53243e-05
301 *1:353 0.000139973
302 *1:354 2.27522e-05
303 *1:355 0.000233288
304 *1:358 0.000139973
305 *1:359 2.9444e-06
306 *1:360 4.28277e-06
307 *1:361 0.000482128
308 *1:362 9.63623e-06
309 *1:364 4.81811e-06
310 *1:365 2.22169e-05
311 *1:366 0.000342155
312 *1:367 0.000327364
313 *1:368 5.35346e-07
314 *1:369 2.38229e-05
315 *1:370 3.74742e-05
316 *1:371 0.000325223
317 *1:372 1.33836e-06
318 *1:374 1.60604e-06
319 *1:375 4.49691e-05
320 *1:376 1.12423e-05
321 *1:377 0.000171078
322 *1:380 7.49484e-06
323 *1:381 2.40906e-06
324 *1:382 0.00024884
325 *1:385 1.2313e-05
326 *1:386 7.77625e-05
327 *1:387 1.73987e-05
328 *1:388 6.21001e-05
329 *1:389 5.08579e-06
330 *1:390 7.76251e-05
331 *1:392 0.000310501
332 *1:393 1.55525e-05
333 *1:394 0.000294976
334 *1:395 6.221e-05
335 *1:396 1.55525e-05
336 *1:397 0.000233288
337 *1:398 0.000233288
338 *1:399 2.67673e-06
339 *1:400 1.55525e-05
340 *1:401 0.000217735
341 *1:402 4.01509e-06
342 *1:403 0.000171078
343 *1:404 5.08579e-06
344 *1:405 1.5525e-05
345 *1:406 0.000388126
346 *1:407 1.01716e-05
347 *1:408 5.05902e-05
348 *1:409 2.40906e-06
349 *1:410 0.000102251
350 *1:411 0.000457208
351 *1:412 6.15648e-06
352 *1:413 4.65751e-05
353 *1:414 9.63623e-06
354 *1:416 9.20795e-05
355 *1:417 0.00018663
356 *1:418 0.000175412
357 *1:419 1.55525e-05
358 *1:421 0.000264393
359 *1:422 5.62113e-06
360 *1:423 5.35346e-06
361 *1:424 0.00018663
362 *1:425 9.92229e-05
363 *1:426 7.10615e-06
364 *1:427 1.55525e-05
365 *1:428 0.000264393
366 *1:431 2.19492e-05
367 *1:432 3.07261e-05
368 *1:434 4.28277e-06
369 *1:435 1.68634e-05
370 *1:436 2.43582e-05
371 *1:437 3.07261e-05
372 *1:438 4.28277e-06
373 *1:439 2.16815e-05
374 *1:440 2.40906e-06
375 *1:441 0.00012212
376 *1:443 4.81811e-06
377 *1:445 0.00012212
378 *1:447 6.14521e-05
379 *1:448 0.000215082
380 *1:449 0.000368713
381 *1:450 3.05301e-05
382 *1:451 0.000337987
383 *1:452 7.89572e-07
384 *1:453 0.000137386
385 *1:454 0.000122904
386 *1:455 0.000209763
387 *1:456 3.94786e-06
388 *1:457 0.000106855
389 *1:458 0.000307261
390 *1:459 0.000115804
391 *1:460 0.000212921
392 *1:461 3.15829e-06
393 *1:462 1.5363e-05
394 *1:463 0.000430165
395 *1:464 0.000250821
396 *1:465 1.52651e-05
397 *1:466 3.15829e-06
398 *1:468 1.5363e-05
399 *1:469 4.47424e-06
400 *1:470 0.000122904
401 *1:471 0.000143702
402 *1:472 6.57977e-06
403 *1:473 0.000215082
404 *1:475 6.36921e-05
405 *1:476 1.15804e-05
406 *1:477 1.02644e-05
407 *1:478 7.68152e-05
408 *1:480 0.000720456
409 *1:481 0.000185286
410 *1:482 7.10615e-06
411 *1:483 1.02644e-05
412 *1:484 4.60891e-05
413 *1:485 3.07261e-05
414 *1:486 0.000521836
415 *1:487 8.94848e-05
416 *1:488 0.000119489
417 *1:489 2.10553e-06
418 *1:492 7.89572e-07
419 *1:493 0.000106855
420 *1:494 3.29238e-05
421 *1:495 4.13347e-06
422 *1:496 9.02744e-05
423 *1:497 9.21782e-05
424 *1:499 2.36872e-06
425 *1:500 0.000106855
426 *1:501 1.64619e-05
427 *1:502 0.00010902
428 *1:503 4.65015e-06
429 *1:504 7.89572e-07
430 *1:505 0.000138267
431 *1:506 1.57914e-06
432 *1:507 1.5363e-05
433 *1:508 0.000239741
434 *1:509 0.000113412
435 *1:510 5.16684e-07
436 *1:512 1.89497e-05
437 *1:513 4.60891e-05
438 *1:515 1.5363e-05
439 *1:516 0.000122971
440 *1:517 0.000119871
441 *1:518 4.39181e-06
442 *1:520 2.23712e-05
443 *1:521 0.000198446
444 *1:522 2.63191e-06
445 *1:523 0.000362162
446 *1:524 3.87513e-06
447 *1:525 1.64619e-05
448 *1:527 3.42148e-06
449 *1:528 0.000228976
450 *1:529 4.73743e-06
451 *1:530 0.000395085
452 *1:531 7.75026e-07
453 *1:532 1.64619e-05
454 *1:534 3.05301e-05
455 *1:535 0.000107541
456 *1:536 2.10553e-06
457 *1:537 3.29238e-05
458 *1:538 0.000376662
459 *1:540 2.99677e-05
460 *1:541 0.000245809
461 *1:542 0.000215082
462 *1:544 0.000119871
463 *1:545 0.000491108
464 *1:546 9.86866e-05
465 *1:547 2.99677e-05
466 *1:548 0.000245809
467 *1:549 4.76375e-05
468 *1:550 0.000107541
469 *1:551 0.00019479
470 *1:552 0.0002462
471 *1:553 5.94186e-06
472 *1:554 1.29171e-06
473 *1:555 1.64619e-05
474 *1:556 1.52651e-05
475 *1:557 5.15854e-05
476 *1:558 2.15816e-05
477 *1:559 1.64619e-05
478 *1:560 7.49191e-05
479 *1:561 3.9268e-05
480 *1:562 1.03337e-06
481 *1:565 1.64619e-05
482 *1:566 0.000138175
483 *1:567 3.94786e-06
484 *1:568 2.8951e-05
485 *1:569 1.64619e-05
486 *1:570 0.000510319
487 *1:571 0.000428009
488 *1:573 4.9085e-06
489 *1:574 0.000125279
490 *1:575 1.5363e-05
491 *1:577 7.36934e-06
492 *1:578 3.1001e-06
493 *1:579 0.000543242
494 *1:580 4.93857e-05
495 *1:581 0.000460933
496 *1:582 9.30031e-06
497 *1:583 2.36872e-06
498 *1:584 1.5363e-05
499 *1:586 8.0086e-06
500 *1:587 0.000148157
501 *1:588 1.93756e-05
502 *1:589 1.49838e-05
503 *1:590 0.000160947
504 *1:591 3.29238e-05
505 *1:592 4.39181e-06
506 *1:594 1.84233e-06
507 *1:595 4.9085e-06
508 *1:596 8.9903e-05
509 *1:597 6.58476e-05
510 *1:598 2.50592e-05
511 *1:599 0.000124004
512 *1:600 0.000166889
513 *1:601 2.32508e-06
514 *1:603 6.05339e-06
515 *1:605 0.000485424
516 *1:606 7.98276e-05
517 *1:607 5.68352e-06
518 *1:608 1.64619e-05
519 *1:609 0.000754058
520 *1:610 5.94186e-06
521 *1:611 5.94186e-06
522 *1:612 4.21105e-06
523 *1:613 0.000611237
524 *1:614 1.64619e-05
525 *1:615 8.62862e-05
526 *1:617 1.64619e-05
527 *1:618 2.58342e-06
528 *1:619 0.000838173
529 *1:621 3.61679e-06
530 *1:623 0.000240516
531 *1:624 6.45855e-06
532 *1:625 1.64619e-05
533 *1:626 6.45855e-06
534 *1:627 1.55005e-06
535 *1:629 2.81247e-05
536 *1:630 0.000195718
537 *1:632 2.45425e-05
538 *1:633 6.71689e-06
539 *1:635 0.000221399
540 *1:637 7.49191e-06
541 *1:638 2.81247e-05
542 *1:639 1.40624e-05
543 *1:640 0.000622539
544 *1:642 9.55865e-06
545 *1:643 0.000222691
546 *1:644 5.94186e-06
547 *1:645 4.09755e-06
548 *1:646 4.21871e-05
549 *1:647 0.000606077
550 *1:648 1.64619e-05
551 *1:649 5.16684e-06
552 *1:650 5.68352e-06
553 *1:652 4.57962e-06
554 *1:653 5.62495e-05
555 *1:654 1.20516e-05
556 *1:655 2.06989e-05
557 *1:656 0.00031466
558 *1:659 4.82065e-07
559 *1:660 2.81247e-05
560 *1:661 3.61549e-06
561 *1:662 1.78364e-05
562 *1:663 0.000165333
563 *1:664 0.00031466
564 *1:666 6.29095e-05
565 *1:667 8.38793e-05
566 *1:668 7.472e-06
567 *1:669 5.78478e-06
568 *1:670 2.58736e-07
569 *1:671 0.000185773
570 *1:672 4.93857e-05
571 *1:673 6.55608e-05
572 *1:674 9.78592e-05
573 *1:675 3.85652e-06
574 *1:678 0.00039286
575 *1:679 4.16566e-05
576 *1:680 4.93857e-05
577 *1:681 2.65136e-06
578 *1:682 1.40624e-05
579 *1:683 5.59195e-05
580 *1:685 0.000409229
581 *1:686 2.58736e-07
582 *1:687 7.49191e-06
583 *1:689 1.40624e-05
584 *1:690 2.81247e-05
585 *1:691 4.19396e-05
586 *1:692 1.63692e-05
587 *1:693 0.000414496
588 *1 7.49191e-06
589 *1:696 4.57962e-06
590 *1:697 2.81247e-05
591 *1:698 0.000168748
592 *1:699 0.000165074
593 *1:700 5.01949e-05
594 *1:701 0.000421482
595 *1:702 1.10875e-05
596 *1:703 4.57962e-06
597 *1:704 0.000168748
598 *1:705 0.000165074
599 *1:706 7.24462e-06
600 *1:707 1.29368e-06
601 *1:708 4.86424e-05
602 *1:709 6.50787e-06
603 *1:710 9.15923e-06
604 *1:711 7.23097e-05
605 *1:712 1.63692e-05
606 *1:715 3.27383e-05
607 *1:717 4.57962e-06
608 *1:718 1.39799e-05
609 *1:719 8.36382e-05
610 *1:720 1.63692e-05
611 *1:721 6.54767e-05
612 *1:723 7.03118e-05
613 *1:724 4.82065e-07
614 *1:725 4.62782e-05
615 *1:726 5.95094e-06
616 *1:727 9.05578e-06
617 *1:728 3.27383e-05
618 *1:729 7.03118e-05
619 *1:731 6.74891e-06
620 *1:732 1.4703e-05
621 *1:733 1.08669e-05
622 *1:734 1.4748e-05
623 *1:735 0.000108411
624 *1:736 1.92826e-06
625 *1:738 4.21871e-05
626 *1:739 4.91599e-06
627 *1:740 5.6922e-06
628 *1:741 0.00018215
629 *1:742 4.09755e-06
630 *1:743 5.62495e-05
631 *1:746 2.06989e-06
632 *1:747 0.000166109
633 *1:748 2.16929e-06
634 *1:749 1.40624e-05
635 *1:750 5.9535e-05
636 *1:752 0.00039286
637 *1:753 0.00012704
638 *1:755 2.91649e-05
639 *1:756 1.06054e-05
640 *1:757 5.83298e-05
641 *1:758 0.000540183
642 *1:759 6.98588e-06
643 *1:760 2.56149e-05
644 *1:761 2.9888e-05
645 *1:762 6.98994e-06
646 *1:763 2.41032e-06
647 *1:764 0.000147323
648 *1:765 1.63004e-05
649 *1:767 0.000294645
650 *1:768 7.23097e-07
651 *1:771 0.000195087
652 *1:772 2.04402e-05
653 *1:773 0.000311014
654 *1:775 0.000330148
655 *1:776 4.13978e-06
656 *1:777 3.88105e-06
657 *1:778 1.63692e-05
658 *1:779 0.00013506
659 *1:780 1.63692e-05
660 *1:782 6.72715e-06
661 *1:783 0.00012083
662 *1:784 0.000291027
663 *1:785 1.63692e-05
664 *1:786 2.8461e-06
665 *1:787 0.000167402
666 *1:788 0.000291027
667 *1:789 7.24462e-06
668 *1:791 0.000111515
669 *1:792 2.32863e-06
670 *1:793 6.1692e-05
671 *1:794 8.5383e-06
672 *1:795 6.80477e-05
673 *1:796 3.27383e-05
674 *1:798 0.000138807
675 *1:799 1.29368e-06
676 *1:800 7.76209e-07
677 *1:801 3.27383e-05
678 *1:802 7.7115e-05
679 *1:803 1.61012e-05
680 *1:806 1.55242e-06
681 *1:807 3.22024e-05
682 *1:808 1.61012e-05
683 *1:809 6.46841e-06
684 *1:810 3.22024e-05
685 *1:811 4.99918e-05
686 *1:812 4.91599e-06
687 *1:813 4.78645e-06
688 *1:814 4.78645e-06
689 *1:815 4.6269e-05
690 *1:817 6.11601e-06
691 *1:818 1.06365e-06
692 *1:819 0.000257619
693 *1:820 1.32957e-06
694 *1:822 0.000338125
695 *1:824 8.0506e-05
696 *1:825 0.000352336
697 *1:826 0.000107961
698 *1:827 0.000484495
699 *1:828 0.000135616
700 *1:829 0.000125777
701 *1:830 6.38193e-06
702 *1:831 8.0506e-05
703 *1:832 3.48347e-05
704 *1:833 1.61012e-05
705 *1:835 8.0506e-05
706 *1:836 7.17967e-06
707 *1:837 1.61012e-05
708 *1:838 0.000323883
709 *1:840 6.91376e-06
710 *1:841 3.0846e-05
711 *1:842 0.000293037
712 *1:843 1.11684e-05
713 *1:844 9.66072e-05
714 *1:845 0.000338125
715 *1:846 4.25462e-06
716 *1:847 0.000177113
717 *1:848 1.61012e-05
718 *1:849 0.000322024
719 *1:851 8.0506e-05
720 *1:852 5.26509e-05
721 *1:853 4.54712e-05
722 *1:854 0.000397479
723 *1:855 0.000165398
724 *1:856 5.8501e-05
725 *1:857 0.000128251
726 *1:858 1.5423e-05
727 *1:859 0.000824091
728 *1:860 0.000389032
729 *1:861 1.5423e-05
730 *1:862 5.8501e-06
731 *1:863 5.31827e-06
732 *1:864 7.74616e-05
733 *1:865 1.61012e-05
734 *1:866 8.86843e-05
735 *1:867 0.00047068
736 *1:868 0.0002356
737 *1:869 3.45688e-06
738 *1:870 0.000177113
739 *1:873 0.000103465
740 *1:874 1.61012e-05
741 *1:875 8.86843e-05
742 *1:876 1.47807e-05
743 *1:877 3.57412e-05
744 *1:878 0.00012881
745 *1:880 0.000338125
746 *1:881 0.000147807
747 *1:882 6.38193e-06
748 *1:883 1.83962e-06
749 *1:884 0.000177369
750 *1:885 7.09568e-06
751 *1:886 0.000241518
752 *1:887 0.000161012
753 *1:888 8.77515e-06
754 *1:889 4.43422e-05
755 *1:890 3.28504e-05
756 *1:891 8.24332e-06
757 *1:892 6.04447e-06
758 *1:893 0.000177369
759 *1:894 0.000320094
760 *1:896 0.000112708
761 *1:897 4.09507e-05
762 *1:898 7.97741e-07
763 *1:899 1.48912e-05
764 *1:900 8.9353e-06
765 *1:901 3.75808e-05
766 *1:902 1.8614e-06
767 *1:903 4.20485e-06
768 *1:904 5.91229e-05
769 *1:905 2.31266e-05
770 *1:906 0.000320094
771 *1:907 3.77597e-05
772 *1:908 4.17484e-05
773 *1:909 7.97741e-07
774 *1:910 6.11601e-06
775 *1:911 1.07749e-05
776 *1:912 4.73045e-06
777 *1:915 0.000221711
778 *1:916 5.25606e-07
779 *1:917 2.47035e-05
780 *1:918 1.47807e-05
781 *1:919 4.52053e-05
782 *1:920 7.97741e-07
783 *1:923 1.83962e-06
784 *1:925 0.000487764
785 *1:926 5.78166e-06
786 *1:927 5.25606e-06
787 *1:928 1.57682e-06
788 *1:929 0.000162588
789 *1:930 7.44558e-06
790 *1:933 0.000310395
791 *1:934 2.91711e-05
792 *1:935 9.4609e-06
793 *1:936 4.73045e-06
794 *1:938 0.000147807
795 *1:939 1.91846e-05
796 *1:941 6.83287e-05
797 *1:942 3.41644e-05
798 *1:943 3.67924e-06
799 *1:945 2.68059e-05
800 *1:946 2.54919e-05
801 *1:947 6.85915e-05
802 *1:948 4.99325e-06
803 *1:950 6.67519e-05
804 *1:951 6.30727e-06
805 *1:952 2.62803e-07
806 *1:954 5.78166e-06
807 *1:955 3.41644e-05
808 *1:959 5.91229e-05
809 *1:960 0.000133027
810 *1:961 1.47807e-05
811 *1:962 0.000443422
812 *1:963 7.88408e-07
813 *1:964 1.31401e-06
814 *1:965 0.00039908
815 *1:966 1.62938e-05
816 *1:967 6.30727e-06
817 *1:968 3.41644e-06
818 *1:969 4.43422e-05
819 *1:970 3.15363e-06
820 *1:971 2.31266e-05
821 *1:972 5.51886e-06
822 *1:973 2.10242e-06
823 *1:974 0.00072602
824 *1:975 8.67249e-06
825 *1:976 6.83287e-06
826 *1:979 0.000786795
827 *1:980 5.51886e-06
828 *1:982 0.000399971
829 *1:983 6.75285e-05
830 *1:985 0.000415355
831 *1:986 6.75285e-06
832 *1:987 0.000376601
833 *1:988 1.53835e-05
834 *1:990 0.000376601
835 *1:991 2.49336e-05
836 *1:992 7.69175e-05
837 *1:993 3.24656e-05
838 *1:994 0.000110643
839 *1:995 0.000276903
840 *1:996 2.15572e-05
841 *1:997 2.33752e-06
842 *1:998 4.93477e-06
843 *1:999 9.53191e-05
844 *1:1000 3.1167e-05
845 *1:1001 0.000292287
846 *1:1002 6.1534e-05
847 *1:1005 5.97367e-06
848 *1:1006 0.000140251
849 *1:1007 3.48031e-05
850 *1:1008 9.2301e-05
851 *1:1009 0.000138452
852 *1:1011 4.67505e-06
853 *1:1012 0.000104409
854 *1:1013 3.94782e-05
855 *1:1014 0.000511365
856 *1:1015 1.87002e-05
857 *1:1016 7.69175e-05
858 *1:1018 0.000107685
859 *1:1019 4.67505e-06
860 *1:1020 0.000511365
861 *1:1021 2.59725e-05
862 *1:1022 3.35045e-05
863 *1:1023 9.2301e-05
864 *1:1024 1.53835e-05
865 *1:1026 1.3633e-05
866 *1:1027 7.2723e-06
867 *1:1028 3.89587e-05
868 *1:1029 0.000210897
869 *1:1030 4.1556e-06
870 *1:1031 1.3633e-05
871 *1:1033 5.45422e-06
872 *1:1034 3.01281e-05
873 *1:1035 0.000180769
874 *1:1036 5.71395e-06
875 *1:1037 1.04267e-05
876 *1:1039 1.53835e-05
877 *1:1040 1.53835e-05
878 *1:1041 1.55835e-06
879 *1:1042 1.4134e-05
880 *1:1043 1.53835e-05
881 *1:1044 7.69175e-05
882 *1:1046 3.70729e-06
883 *1:1047 1.0389e-06
884 *1:1048 0.000138452
885 *1:1049 5.40228e-05
886 *1:1051 1.55835e-06
887 *1:1052 7.69175e-05
888 *1:1053 0.000354897
889 *1:1054 5.63603e-05
890 *1:1055 5.1945e-07
891 *1:1056 1.5064e-05
892 *1:1057 0.000882722
893 *1:1058 2.33752e-06
894 *1:1060 1.5064e-05
895 *1:1061 2.31706e-06
896 *1:1062 0.000525508
897 *1:1064 7.69175e-05
898 *1:1066 2.7266e-05
899 *1:1067 7.69175e-05
900 *1:1068 0.000218128
901 *1:1069 0.000211936
902 *1:1070 1.1817e-05
903 *1:1071 0.000259027
904 *1:1072 0.000195833
905 *1:1073 2.12974e-05
906 *1:1074 1.64511e-05
907 *1:1075 3.49875e-05
908 *1:1076 0.000491384
909 *1:1077 0.000138452
910 *1:1078 5.1945e-06
911 *1:1079 1.62194e-06
912 *1:1080 3.01217e-06
913 *1:1081 3.52192e-05
914 *1:1082 3.35973e-05
915 *1:1083 0.00042322
916 *1:1084 0.000138452
917 *1:1086 0.00013633
918 *1:1088 2.31706e-07
919 *1:1089 3.7768e-05
920 *1:1090 2.82432e-05
921 *1:1091 9.73903e-07
922 *1:1092 2.25961e-05
923 *1:1093 0.000163596
924 *1:1095 4.1707e-06
925 *1:1096 2.82432e-05
926 *1:1097 7.54775e-06
927 *1:1098 2.62322e-05
928 *1:1099 2.7266e-05
929 *1:1100 4.86582e-06
930 *1:1102 0.000483125
931 *1:1103 6.57384e-06
932 *1:1104 3.63615e-06
933 *1:1105 2.57193e-05
934 *1:1106 6.48775e-06
935 *1:1107 0.00053834
936 *1:1110 8.06335e-05
937 *1:1111 1.62194e-06
938 *1:1112 1.70433e-05
939 *1:1113 5.52143e-05
940 *1:1114 5.49142e-05
941 *1:1117 1.70433e-05
942 *1:1118 6.35472e-05
943 *1:1119 1.3633e-05
944 *1:1120 2.31706e-06
945 *1:1122 6.35472e-05
946 *1:1123 1.3633e-05
947 *1:1124 2.31706e-06
948 *1:1125 3.62779e-05
949 *1:1127 3.93899e-06
950 *1:1129 2.92171e-06
951 *1:1130 4.01735e-05
952 *1:1131 0.000204763
953 *1:1132 8.10969e-06
954 *1:1134 6.81732e-06
955 *1:1135 0.000261249
956 *1:1136 4.1707e-06
957 *1:1138 0.000473225
958 *1:1139 2.76072e-05
959 *1:1141 0.000457494
960 *1:1142 4.14108e-05
961 *1:1143 2.76072e-05
962 *1:1144 3.77366e-05
963 *1:1145 3.01893e-06
964 *1:1146 4.14108e-05
965 *1:1147 6.81732e-06
966 *1:1148 5.59244e-05
967 *1:1150 5.84342e-06
968 *1:1151 1.11999e-05
969 *1:1152 6.99055e-05
970 *1:1153 5.84342e-06
971 *1:1154 4.38256e-06
972 *1:1155 7.04417e-06
973 *1:1156 1.39811e-05
974 *1:1159 9.55995e-06
975 *1:1160 0.000423154
976 *1:1161 2.51578e-06
977 *1:1162 0.000423154
978 *1:1164 0.000195736
979 *1:1165 0.000265641
980 *1:1166 1.39811e-05
981 *1:1167 8.38867e-05
982 *1:1168 9.0568e-06
983 *1:1169 0.000131324
984 *1:1170 1.03147e-05
985 *1:1171 7.72343e-05
986 *1:1172 0.000145915
987 *1:1173 1.1321e-05
988 *1:1174 1.25789e-06
989 *1:1175 7.19512e-05
990 *1:1176 2.9183e-05
991 *1:1177 2.79622e-05
992 *1:1178 1.00631e-06
993 *1:1180 5.03155e-06
994 *1:1181 8.7549e-05
995 *1:1182 4.19433e-05
996 *1:1183 2.79622e-05
997 *1:1186 0.000137865
998 *1:1187 1.39811e-05
999 *1:1188 4.19433e-05
1000 *1:1189 4.02524e-06
1001 *1:1190 0.000379882
1002 *1:1191 1.39811e-05
1003 *1:1192 1.39811e-05
1004 *1:1193 4.27682e-06
1005 *1:1194 8.30206e-06
1006 *1:1195 0.000630241
1007 *1:1196 5.03155e-07
1008 *1:1197 2.79622e-05
1009 *1:1198 4.27682e-06
1010 *1:1199 1.08178e-05
1011 *1:1200 4.27682e-06
1012 *1:1201 0.000444293
1013 *1:1202 2.79622e-05
1014 *1:1204 1.39811e-05
1015 *1:1205 6.7926e-06
1016 *1:1206 1.15726e-05
1017 *1:1207 6.54102e-06
1018 *1:1209 0.000191242
1019 *1:1210 6.17675e-06
1020 *1:1211 2.79622e-05
1021 *1:1212 4.5284e-06
1022 *1:1213 1.23273e-05
1023 *1:1214 7.29575e-06
1024 *1:1216 0.00012401
1025 *1:1217 1.45776e-05
1026 *1:1219 1.25789e-06
1027 *1:1220 5.28313e-06
1028 *1:1221 5.53471e-06
1029 *1:1223 5.51156e-05
1030 *1:1224 2.91552e-05
1031 *1:1225 1.45776e-05
1032 *1:1226 3.52209e-06
1033 *1:1227 7.54733e-07
1034 *1:1229 0.000145776
1035 *1:1230 4.37329e-05
1036 *1:1231 6.65189e-06
1037 *1:1232 2.2642e-06
1038 *1:1234 0.000145776
1039 *1:1235 7.28881e-05
1040 *1:1236 1.18784e-05
1041 *1:1237 9.02756e-06
1042 *1:1239 5.15521e-05
1043 *1:1240 5.83105e-05
1044 *1:1241 3.32594e-06
1045 *1:1242 1.47292e-05
1046 *1:1243 2.37567e-06
1047 *1:1244 9.64523e-05
1048 *1:1245 2.68451e-05
1049 *1:1246 3.72981e-05
1050 *1:1247 7.36459e-06
1051 *1:1248 2.85081e-06
1052 *1:1250 0.000192905
1053 *1:1251 1.45776e-05
1054 *1:1252 4.51378e-06
1055 *1:1253 1.37789e-05
1056 *1:1254 4.15743e-05
1057 *1:1255 4.03864e-06
1058 *1:1257 0.000137789
1059 *1:1258 1.45776e-05
1060 *1:1259 1.45776e-05
1061 *1:1261 1.66297e-06
1062 *1:1262 4.27621e-06
1063 *1:1264 2.91552e-05
1064 *1:1265 2.91552e-05
1065 *1:1266 5.46405e-06
1066 *1:1269 2.91552e-05
1067 *1:1270 1.45776e-05
1068 *1:1271 4.51378e-06
1069 *1:1272 8.07729e-06
1070 *1:1273 9.50269e-07
1071 *1:1274 1.90054e-06
1072 *1:1275 7.36459e-06
1073 *1:1276 2.61324e-06
1074 *1:1277 1.66297e-06
1075 *1:1278 3.08838e-06
1076 *1:1279 2.85081e-06
1077 *1:1281 7.12702e-07
1078 *1:1282 1.18784e-06

*RES
1 *1:1282 *633:CK 1.4
2 *1:1281 *601:CK 1.4
3 *1:1279 *569:CK 1.4
4 *1:1278 *1:1282 0.0107142
5 *1:1277 *1:1281 0.00642855
6 *1:1276 *792:CK 1.4
7 *1:1275 *1:1279 0.0257142
8 *1:1274 *1:1278 0.0171428
9 *1:1273 *1:1277 0.00857139
10 *1:1272 *1:1276 0.0235713
11 *1:1271 *1:1275 0.0407141
12 *1:1270 *1:1274 1.4
13 *1:1269 *1:1273 1.4
14 *1:1266 *1:1272 0.0492855
15 *1:1265 *1:1271 1.4
16 *1:1265 *1:1270 0.124289
17 *1:1264 *1:1269 0.248577
18 *1:1262 *602:CK 1.4
19 *1:1261 *858:CK 1.4
20 *1:1259 *1:1266 1.4
21 *1:1258 *1:1265 0.124289
22 *1:1257 *1:1264 1.4
23 *1:1255 *570:CK 1.4
24 *1:1254 *1:1262 0.0385713
25 *1:1253 *1:1261 0.0149999
26 *1:1252 *826:CK 1.4
27 *1:1251 *1:1259 0.124289
28 *1:1250 *1:1258 1.4
29 *1:1250 *1:1257 1.24285
30 *1:1248 *634:CK 1.4
31 *1:1247 *1:1255 0.0364284
32 *1:1246 *1:1254 0.336427
33 *1:1245 *1:1253 0.109285
34 *1:1245 *1:1252 0.0407141
35 *1:1244 *1:1251 1.4
36 *1:1244 *1:1250 0.497141
37 *1:1243 *793:CK 1.4
38 *1:1242 *1:1248 0.0257142
39 *1:1241 *1:1247 0.0299999
40 *1:1240 *1:1246 1.4
41 *1:1239 *1:1245 0.0921425
42 *1:1239 *1:1244 0.372856
43 *1:1237 *1:1243 0.0214285
44 *1:1236 *1:1242 0.107142
45 *1:1235 *1:1241 1.4
46 *1:1235 *1:1240 0.497155
47 *1:1234 *1:1239 1.4
48 *1:1232 *859:CK 1.4
49 *1:1231 *1:1237 0.0599998
50 *1:1230 *1:1236 1.4
51 *1:1230 *1:1235 0.124289
52 *1:1229 *1:1234 1.24289
53 *1:1227 *828:CK 1.4
54 *1:1226 *1:1232 0.0192852
55 *1:1225 *1:1231 1.4
56 *1:1224 *1:1230 0.248577
57 *1:1223 *1:1229 1.4
58 *1:1221 *571:CK 1.4
59 *1:1220 *1:1227 0.00642841
60 *1:1219 *1:1226 0.010714
61 *1:1217 *1:1225 0.124289
62 *1:1216 *1:1224 1.4
63 *1:1216 *1:1223 0.497141
64 *1:1214 *860:CK 1.4
65 *1:1213 *1:1221 0.0471417
66 *1:1212 *1:1220 0.0385705
67 *1:1211 *1:1219 1.4
68 *1:1210 *827:CK 1.4
69 *1:1209 *1:1217 1.4
70 *1:1209 *1:1216 0.621426
71 *1:1207 *603:CK 1.4
72 *1:1206 *1:1214 0.0621413
73 *1:1205 *1:1213 0.0578557
74 *1:1204 *1:1212 1.4
75 *1:1202 *1:1211 0.248565
76 *1:1201 *1:1210 0.0557141
77 *1:1201 *1:1209 1.10357
78 *1:1200 *635:CK 1.4
79 *1:1199 *1:1207 0.0557129
80 *1:1198 *1:1206 0.0364277
81 *1:1197 *1:1205 1.4
82 *1:1197 *1:1204 0.124283
83 *1:1196 *794:CK 1.4
84 *1:1195 *1:1202 1.4
85 *1:1195 *1:1201 2.74924
86 *1:1194 *1:1200 0.0364277
87 *1:1193 *1:1199 0.0364277
88 *1:1192 *1:1198 1.4
89 *1:1191 *1:1197 0.124283
90 *1:1190 *1:1196 0.00428561
91 *1:1190 *1:1195 2.67851
92 *1:1189 *1:1194 0.0342849
93 *1:1188 *1:1193 1.4
94 *1:1187 *1:1192 0.124283
95 *1:1186 *1:1191 1.4
96 *1:1186 *1:1190 0.552844
97 *1:1183 *1:1189 1.4
98 *1:1182 *1:1188 0.372848
99 *1:1181 *1:1187 1.4
100 *1:1181 *1:1186 0.621413
101 *1:1180 *604:CK 1.4
102 *1:1178 *829:CK 1.4
103 *1:1177 *1:1183 0.248565
104 *1:1176 *1:1182 1.4
105 *1:1176 *1:1181 0.124283
106 *1:1175 *1:1180 0.0428561
107 *1:1174 *572:CK 1.4
108 *1:1173 *1:1178 0.00857122
109 *1:1172 *1:1177 1.4
110 *1:1172 *1:1176 0.124283
111 *1:1171 *1:1175 0.569986
112 *1:1171 *1:1174 0.010714
113 *1:1170 *1:1173 0.087855
114 *1:1169 *1:1172 1.11854
115 *1:1168 *1:1171 0.077141
116 *1:1167 *1:1170 1.4
117 *1:1166 *1:1169 1.4
118 *1:1165 *1:1168 1.4
119 *1:1165 *1:1167 0.745696
120 *1:1164 *1:1166 0.124283
121 *1:1164 *1:1165 1.61567
122 *1:1162 *1:1164 1.4
123 *1:1161 *529:CK 1.4
124 *1:1160 *1:1162 3.6042
125 *1:1159 *1:1161 0.021428
126 *1:1156 *1:1160 1.4
127 *1:1155 *1:1159 0.0599985
128 *1:1154 *795:CK 1.4
129 *1:1153 *796:CK 1.4
130 *1:1152 *1:1156 0.124283
131 *1:1152 *1:1155 1.4
132 *1:1151 *1:1154 0.0385705
133 *1:1150 *1:1153 0.0514273
134 *1:1148 *1:1152 0.497131
135 *1:1147 *1:1151 0.0599985
136 *1:1146 *1:1150 1.4
137 *1:1145 *530:CK 1.4
138 *1:1144 *1:1148 1.4
139 *1:1143 *1:1147 1.4
140 *1:1142 *1:1146 0.372851
141 *1:1141 *1:1145 0.0257137
142 *1:1141 *1:1144 0.321421
143 *1:1139 *1:1143 0.248567
144 *1:1138 *1:1142 1.4
145 *1:1138 *1:1141 3.65562
146 *1:1136 *539:CK 1.4
147 *1:1135 *1:1139 1.4
148 *1:1135 *1:1138 0.497131
149 *1:1134 *532:CK 1.4
150 *1:1132 *1:1136 0.0385708
151 *1:1131 *1:1135 1.8021
152 *1:1130 *1:1134 0.0599985
153 *1:1129 *531:CK 1.4
154 *1:1127 *1:1132 0.036428
155 *1:1126 *1:1131 1.4
156 *1:1125 *1:1130 0.293564
157 *1:1125 *1:1129 0.0257137
158 *1:1124 *538:CK 1.4
159 *1:1123 *1:1127 1.4
160 *1:1122 *1:1126 1.4
161 *1:1121 *1:1125 1.4
162 *1:1120 *1:1124 0.0214282
163 *1:1119 *1:1123 0.124283
164 *1:1118 *1:1122 0.559272
165 *1:1117 *1:1121 1.4
166 *1:1115 *1:1120 1.4
167 *1:1114 *1:1119 1.4
168 *1:1113 *1:1118 1.4
169 *1:1112 *1:1117 0.149996
170 *1:1111 *537:CK 1.4
171 *1:1110 *1:1115 1.4
172 *1:1110 *1:1114 0.507849
173 *1:1107 *1:1113 0.497135
174 *1:1107 *1:1112 1.4
175 *1:1106 *1:1111 0.0149998
176 *1:1105 *1:1110 0.237853
177 *1:1104 *573:CK 1.4
178 *1:1103 *533:CK 1.4
179 *1:1102 *1:1107 4.34993
180 *1:1100 *1:1106 0.0449993
181 *1:1099 *1:1105 1.4
182 *1:1098 *1:1104 0.0299993
183 *1:1097 *1:1103 0.0578557
184 *1:1096 *1:1102 1.4
185 *1:1095 *534:CK 1.4
186 *1:1093 *1:1100 1.4
187 *1:1093 *1:1099 0.248565
188 *1:1092 *1:1098 0.186424
189 *1:1091 *1:1097 0.00857122
190 *1:1090 *1:1096 0.248565
191 *1:1089 *1:1095 0.0385708
192 *1:1088 *535:CK 1.4
193 *1:1086 *1:1093 1.24283
194 *1:1084 *1:1092 1.4
195 *1:1083 *1:1091 1.4
196 *1:1083 *1:1090 1.4
197 *1:1082 *1:1089 0.310709
198 *1:1081 *1:1088 0.00214282
199 *1:1080 *536:CK 1.4
200 *1:1079 *1:1086 1.4
201 *1:1078 *763:CK 1.4
202 *1:1077 *1:1084 1.11859
203 *1:1076 *1:1083 3.85277
204 *1:1076 *1:1082 1.4
205 *1:1075 *1:1081 0.323566
206 *1:1074 *1:1080 0.0278567
207 *1:1074 *1:1079 0.0149998
208 *1:1073 *1:1078 0.0428561
209 *1:1072 *1:1077 1.4
210 *1:1071 *1:1076 0.621413
211 *1:1071 *1:1075 1.4
212 *1:1070 *1:1074 0.109284
213 *1:1069 *1:1073 0.132854
214 *1:1069 *1:1072 1.61567
215 *1:1068 *1:1071 1.73996
216 *1:1068 *1:1070 1.4
217 *1:1067 *1:1069 1.4
218 *1:1066 *1:1068 0.248565
219 *1:1064 *1:1067 0.621439
220 *1:1062 *1:1066 1.4
221 *1:1061 *540:CK 1.4
222 *1:1060 *1:1064 1.4
223 *1:1058 *541:CK 1.4
224 *1:1057 *1:1062 4.85992
225 *1:1057 *1:1061 0.0214282
226 *1:1056 *1:1060 0.124283
227 *1:1055 *764:CK 1.4
228 *1:1054 *1:1058 0.0192852
229 *1:1053 *1:1057 3.09422
230 *1:1052 *1:1056 1.4
231 *1:1051 *1:1055 0.00428561
232 *1:1049 *1:1054 0.445703
233 *1:1048 *1:1053 1.4
234 *1:1048 *1:1052 0.621439
235 *1:1047 *1:1051 0.00857122
236 *1:1046 *797:CK 1.4
237 *1:1044 *1:1049 1.4
238 *1:1044 *1:1048 0.497151
239 *1:1043 *1:1047 1.4
240 *1:1042 *1:1046 0.0342852
241 *1:1041 *798:CK 1.4
242 *1:1040 *1:1044 0.124288
243 *1:1039 *1:1043 0.124288
244 *1:1037 *1:1042 0.096427
245 *1:1036 *1:1041 0.0128568
246 *1:1035 *1:1040 1.4
247 *1:1034 *1:1039 1.4
248 *1:1033 *799:CK 1.4
249 *1:1031 *1:1037 1.4
250 *1:1030 *1:1036 0.0342849
251 *1:1029 *1:1035 1.49139
252 *1:1029 *1:1034 0.248565
253 *1:1028 *1:1033 0.0449989
254 *1:1027 *831:CK 1.4
255 *1:1026 *1:1031 0.124283
256 *1:1024 *1:1030 1.4
257 *1:1023 *1:1029 1.4
258 *1:1022 *1:1028 0.276422
259 *1:1021 *1:1027 0.0599985
260 *1:1020 *1:1026 1.4
261 *1:1019 *605:CK 1.4
262 *1:1018 *1:1024 0.124288
263 *1:1018 *1:1023 0.745726
264 *1:1016 *1:1022 1.4
265 *1:1015 *1:1021 0.154282
266 *1:1014 *1:1020 4.22561
267 *1:1013 *1:1019 0.0385705
268 *1:1012 *1:1018 1.4
269 *1:1011 *830:CK 1.4
270 *1:1009 *1:1016 0.621439
271 *1:1009 *1:1015 1.4
272 *1:1008 *1:1014 1.4
273 *1:1007 *1:1013 0.287136
274 *1:1006 *1:1012 0.861408
275 *1:1006 *1:1011 0.0385705
276 *1:1005 *542:CK 1.4
277 *1:1002 *1:1009 0.497151
278 *1:1001 *1:1008 0.745726
279 *1:1001 *1:1007 1.4
280 *1:1000 *1:1006 0.257137
281 *1:999 *1:1005 0.0492845
282 *1:998 *765:CK 1.4
283 *1:997 *606:CK 1.4
284 *1:996 *1:1002 1.4
285 *1:995 *1:1001 1.61574
286 *1:995 *1:1000 1.4
287 *1:994 *1:999 0.737125
288 *1:994 *1:998 0.0407133
289 *1:993 *1:997 0.0192852
290 *1:993 *1:996 0.177853
291 *1:992 *1:995 0.621439
292 *1:991 *1:994 0.134997
293 *1:991 *1:993 0.0707126
294 *1:990 *1:992 1.4
295 *1:988 *1:991 1.4
296 *1:987 *1:990 3.10707
297 *1:986 *574:CK 1.4
298 *1:985 *1:988 0.124288
299 *1:985 *1:987 1.4
300 *1:983 *1:986 0.0557129
301 *1:982 *1:985 3.23148
302 *1:980 *575:CK 1.4
303 *1:979 *1:983 0.501416
304 *1:979 *1:982 1.4
305 *1:976 *607:CK 1.4
306 *1:975 *1:980 0.0450006
307 *1:974 *1:979 5.96565
308 *1:973 *543:CK 1.4
309 *1:972 *766:CK 1.4
310 *1:971 *1:976 0.055715
311 *1:970 *1:975 0.0257146
312 *1:969 *1:974 1.4
313 *1:968 *1:973 0.0171431
314 *1:967 *1:972 0.0450006
315 *1:966 *1:971 0.132859
316 *1:965 *1:970 1.4
317 *1:965 *1:969 0.37285
318 *1:964 *1:968 0.0107144
319 *1:963 *1:967 0.00642866
320 *1:962 *1:966 1.4
321 *1:962 *1:965 2.9828
322 *1:961 *1:964 1.4
323 *1:960 *1:963 1.4
324 *1:960 *1:962 0.745699
325 *1:959 *1:961 0.124283
326 *1:959 *1:960 0.37285
327 *1:955 *1:959 1.4
328 *1:954 *832:CK 1.4
329 *1:952 *576:CK 1.4
330 *1:951 *800:CK 1.4
331 *1:950 *1:955 0.278575
332 *1:950 *1:954 0.0471435
333 *1:948 *608:CK 1.4
334 *1:947 *1:952 0.00214289
335 *1:946 *1:951 0.0514292
336 *1:945 *1:950 0.218574
337 *1:943 *767:CK 1.4
338 *1:942 *1:948 0.0407148
339 *1:941 *1:947 0.55715
340 *1:939 *1:946 0.156431
341 *1:938 *1:945 1.4
342 *1:936 *833:CK 1.4
343 *1:935 *1:943 0.0300004
344 *1:934 *1:942 0.23786
345 *1:933 *1:941 1.4
346 *1:930 *578:CK 1.4
347 *1:929 *1:939 1.4
348 *1:929 *1:938 1.24283
349 *1:928 *544:CK 1.4
350 *1:927 *1:936 0.0385719
351 *1:926 *1:935 0.0471435
352 *1:925 *1:934 1.4
353 *1:925 *1:933 2.60995
354 *1:923 *545:CK 1.4
355 *1:920 *610:CK 1.4
356 *1:919 *1:930 0.0600015
357 *1:918 *1:929 0.124283
358 *1:917 *1:928 0.0128573
359 *1:916 *1:927 0.00428577
360 *1:915 *1:926 1.4
361 *1:915 *1:925 1.4914
362 *1:912 *768:CK 1.4
363 *1:911 *1:923 0.0150002
364 *1:910 *609:CK 1.4
365 *1:909 *577:CK 1.4
366 *1:908 *1:920 0.00642873
367 *1:907 *1:919 0.304293
368 *1:906 *1:918 1.4
369 *1:905 *1:917 0.188574
370 *1:904 *1:916 1.4
371 *1:904 *1:915 0.37285
372 *1:903 *802:CK 1.4
373 *1:902 *803:CK 1.4
374 *1:901 *1:912 0.0385719
375 *1:900 *1:911 0.0728581
376 *1:899 *1:910 0.0492869
377 *1:898 *1:909 0.00642873
378 *1:897 *1:908 0.330008
379 *1:896 *1:907 1.4
380 *1:894 *1:906 2.61003
381 *1:893 *1:905 1.4
382 *1:893 *1:904 0.124283
383 *1:892 *1:903 0.0342862
384 *1:891 *1:902 0.0150004
385 *1:890 *1:901 0.267861
386 *1:889 *1:900 1.4
387 *1:888 *1:899 0.070716
388 *1:887 *1:898 1.4
389 *1:886 *1:897 1.4
390 *1:886 *1:896 0.869981
391 *1:885 *801:CK 1.4
392 *1:884 *1:894 1.4
393 *1:884 *1:893 1.36712
394 *1:883 *1:892 0.0150002
395 *1:882 *1:891 0.0514298
396 *1:881 *1:890 1.4
397 *1:881 *1:889 0.37285
398 *1:880 *1:888 1.4
399 *1:880 *1:887 1.24283
400 *1:878 *1:886 0.994264
401 *1:877 *1:885 0.0578579
402 *1:876 *1:884 0.124283
403 *1:875 *1:883 1.4
404 *1:874 *1:882 1.4
405 *1:873 *1:881 0.869982
406 *1:870 *1:880 1.36711
407 *1:869 *546:CK 1.4
408 *1:868 *1:878 1.4
409 *1:867 *1:877 0.233574
410 *1:867 *1:876 1.4
411 *1:866 *1:875 0.745699
412 *1:865 *1:874 0.124283
413 *1:864 *1:873 1.4
414 *1:863 *834:CK 1.4
415 *1:862 *769:CK 1.4
416 *1:861 *1:870 1.4
417 *1:860 *1:869 0.0278578
418 *1:860 *1:868 1.89862
419 *1:859 *1:867 3.60433
420 *1:859 *1:866 1.4
421 *1:858 *1:865 1.4
422 *1:857 *1:864 0.627869
423 *1:857 *1:863 0.0428582
424 *1:856 *1:862 0.047144
425 *1:855 *1:861 0.124289
426 *1:855 *1:860 1.2086
427 *1:854 *1:859 3.10719
428 *1:854 *1:858 0.124289
429 *1:853 *1:857 0.366437
430 *1:852 *1:856 0.424296
431 *1:851 *1:855 1.4
432 *1:849 *1:854 1.4
433 *1:848 *1:853 1.4
434 *1:847 *1:852 1.4
435 *1:847 *1:851 0.621415
436 *1:846 *579:CK 1.4
437 *1:845 *1:849 2.48566
438 *1:845 *1:848 0.124283
439 *1:844 *1:847 0.745698
440 *1:843 *1:846 0.0342866
441 *1:842 *1:845 1.4
442 *1:841 *1:844 1.4
443 *1:840 *1:843 0.0557156
444 *1:838 *1:842 2.36149
445 *1:838 *1:841 0.248577
446 *1:837 *1:840 1.4
447 *1:836 *835:CK 1.4
448 *1:835 *1:838 1.4
449 *1:833 *1:837 0.124283
450 *1:832 *1:836 0.0578586
451 *1:831 *1:835 0.621415
452 *1:830 *611:CK 1.4
453 *1:829 *1:833 1.4
454 *1:828 *1:832 0.222863
455 *1:828 *1:831 1.4
456 *1:827 *1:830 0.0514298
457 *1:827 *1:829 1.0136
458 *1:826 *1:828 0.870021
459 *1:825 *1:827 2.83935
460 *1:824 *1:826 1.4
461 *1:822 *1:825 1.4
462 *1:822 *1:824 0.621415
463 *1:820 *547:CK 1.4
464 *1:819 *1:822 1.98853
465 *1:818 *770:CK 1.4
466 *1:817 *1:820 0.0107145
467 *1:815 *1:819 1.4
468 *1:814 *1:818 0.00857164
469 *1:813 *1:817 0.0385724
470 *1:812 *549:CK 1.4
471 *1:811 *1:815 0.372866
472 *1:811 *1:814 0.0300007
473 *1:810 *1:813 1.4
474 *1:809 *1:812 0.0407136
475 *1:808 *1:811 1.4
476 *1:807 *1:810 0.248566
477 *1:806 *1:809 0.0128569
478 *1:803 *1:808 0.124283
479 *1:802 *1:807 1.4
480 *1:801 *1:806 1.4
481 *1:800 *772:CK 1.4
482 *1:799 *836:CK 1.4
483 *1:798 *1:803 1.4
484 *1:798 *1:802 0.621444
485 *1:796 *1:801 0.248566
486 *1:795 *1:800 0.00642846
487 *1:794 *1:799 0.0107141
488 *1:793 *1:798 0.497155
489 *1:792 *838:CK 1.4
490 *1:791 *1:796 1.4
491 *1:791 *1:795 0.557133
492 *1:789 *1:794 0.059999
493 *1:788 *1:793 1.4
494 *1:787 *1:792 0.0192854
495 *1:787 *1:791 0.366422
496 *1:786 *806:CK 1.4
497 *1:785 *1:789 1.4
498 *1:784 *1:788 2.23709
499 *1:783 *1:787 1.0007
500 *1:782 *1:786 0.023571
501 *1:780 *1:785 0.124283
502 *1:779 *1:784 1.4
503 *1:778 *1:783 1.4
504 *1:777 *1:782 0.0321423
505 *1:776 *804:CK 1.4
506 *1:775 *1:780 1.4
507 *1:775 *1:779 1.11855
508 *1:773 *1:778 0.124283
509 *1:773 *1:777 1.4
510 *1:772 *1:776 0.0342851
511 *1:771 *1:775 1.61569
512 *1:768 *824:CK 1.4
513 *1:767 *1:773 2.23709
514 *1:765 *1:772 0.134998
515 *1:764 *1:771 1.4
516 *1:763 *790:CK 1.4
517 *1:762 *856:CK 1.4
518 *1:761 *1:768 0.00642841
519 *1:760 *1:767 1.4
520 *1:759 *805:CK 1.4
521 *1:758 *1:765 1.4
522 *1:758 *1:764 1.11855
523 *1:757 *1:763 0.021428
524 *1:756 *1:762 0.0621413
525 *1:755 *1:761 0.259279
526 *1:753 *1:760 0.212139
527 *1:753 *1:759 0.0578561
528 *1:752 *1:758 2.98279
529 *1:750 *1:757 0.497131
530 *1:750 *1:756 0.0321421
531 *1:749 *1:755 1.4
532 *1:748 *599:CK 1.4
533 *1:747 *1:753 0.782129
534 *1:747 *1:752 1.4
535 *1:746 *837:CK 1.4
536 *1:743 *1:750 1.4
537 *1:743 *1:749 0.124283
538 *1:742 *1:748 0.0192852
539 *1:741 *1:747 0.593561
540 *1:741 *1:746 0.0171426
541 *1:740 *548:CK 1.4
542 *1:739 *580:CK 1.4
543 *1:738 *1:743 0.372848
544 *1:736 *1:742 0.0171424
545 *1:735 *1:741 0.897842
546 *1:734 *1:740 0.047142
547 *1:733 *1:739 0.0407136
548 *1:732 *1:738 1.4
549 *1:731 *567:CK 1.4
550 *1:729 *1:736 1.4
551 *1:728 *1:735 1.4
552 *1:727 *1:734 0.0749987
553 *1:726 *1:733 0.0492849
554 *1:725 *1:732 0.130711
555 *1:725 *1:731 0.0599985
556 *1:724 *631:CK 1.4
557 *1:723 *1:729 0.621413
558 *1:721 *1:728 0.248566
559 *1:721 *1:727 1.4
560 *1:720 *1:726 1.4
561 *1:719 *1:725 0.220709
562 *1:719 *1:724 0.00428561
563 *1:718 *1:723 1.4
564 *1:717 *825:CK 1.4
565 *1:715 *1:721 0.248566
566 *1:712 *1:720 0.124283
567 *1:711 *1:719 0.518559
568 *1:711 *1:718 0.124283
569 *1:710 *1:717 0.0407133
570 *1:709 *857:CK 1.4
571 *1:708 *1:715 1.4
572 *1:707 *771:CK 1.4
573 *1:706 *612:CK 1.4
574 *1:705 *1:712 1.4
575 *1:704 *1:711 1.4
576 *1:703 *1:710 0.0407133
577 *1:702 *1:709 0.0578557
578 *1:701 *1:708 0.40285
579 *1:701 *1:707 0.0107141
580 *1:700 *1:706 0.059999
581 *1:699 *1:705 1.36712
582 *1:698 *1:704 1.49139
583 *1:697 *1:703 1.4
584 *1:696 *1:702 0.0407133
585 *1:693 *1:701 3.07709
586 *1:693 *1:700 0.355708
587 *1:692 *1:699 1.4
588 *1:691 *1:698 1.4
589 *1:690 *1:697 0.248565
590 *1:689 *1:696 1.4
591 *1:687 *1 0.0621444
592 *1:686 *613:CK 1.4
593 *1:685 *1:693 1.4
594 *1:685 *1:692 0.124283
595 *1:683 *1:691 0.372848
596 *1:683 *1:690 1.4
597 *1:682 *1:689 0.124283
598 *1:681 *791:CK 1.4
599 *1:680 *1:687 1.4
600 *1:679 *1:686 0.00214282
601 *1:678 *1:685 2.98279
602 *1:675 *632:CK 1.4
603 *1:674 *1:683 0.124283
604 *1:674 *1:682 1.4
605 *1:673 *1:681 0.0235709
606 *1:672 *1:680 0.372866
607 *1:671 *1:679 0.342851
608 *1:671 *1:678 1.4
609 *1:670 *581:CK 1.4
610 *1:669 *568:CK 1.4
611 *1:668 *1:675 0.0342849
612 *1:667 *1:674 0.745696
613 *1:666 *1:673 0.559272
614 *1:664 *1:672 1.4
615 *1:663 *1:671 1.19569
616 *1:663 *1:670 0.00214282
617 *1:662 *1:669 0.0514273
618 *1:661 *1:668 0.0321421
619 *1:660 *1:667 1.4
620 *1:660 *1:666 1.4
621 *1:659 *600:CK 1.4
622 *1:656 *1:664 2.61006
623 *1:655 *1:663 0.171426
624 *1:654 *1:662 0.10714
625 *1:653 *1:661 1.4
626 *1:653 *1:660 0.248565
627 *1:652 *1:659 0.00428561
628 *1:650 *807:CK 1.4
629 *1:649 *773:CK 1.4
630 *1:648 *1:656 1.4
631 *1:647 *1:655 1.4
632 *1:646 *1:654 1.4
633 *1:646 *1:653 0.248565
634 *1:645 *1:652 0.0364277
635 *1:644 *840:CK 1.4
636 *1:643 *1:650 0.047144
637 *1:642 *1:649 0.0428582
638 *1:640 *1:648 0.124289
639 *1:640 *1:647 4.5985
640 *1:639 *1:646 0.124283
641 *1:638 *1:645 1.4
642 *1:637 *1:644 0.0492869
643 *1:635 *1:643 1.80004
644 *1:635 *1:642 0.0364295
645 *1:633 *582:CK 1.4
646 *1:632 *1:640 1.4
647 *1:630 *1:639 1.4
648 *1:629 *1:638 0.248565
649 *1:627 *1:637 0.0128575
650 *1:626 *550:CK 1.4
651 *1:625 *1:635 1.4
652 *1:624 *614:CK 1.4
653 *1:623 *1:633 0.0557157
654 *1:623 *1:632 0.203576
655 *1:621 *584:CK 1.4
656 *1:619 *1:630 1.73996
657 *1:619 *1:629 1.4
658 *1:618 *808:CK 1.4
659 *1:617 *1:627 1.4
660 *1:615 *1:626 0.0535727
661 *1:614 *1:625 0.124289
662 *1:613 *1:624 0.0535727
663 *1:613 *1:623 1.73576
664 *1:612 *617:CK 1.4
665 *1:611 *1:621 0.0300007
666 *1:610 *616:CK 1.4
667 *1:609 *1:619 5.68274
668 *1:609 *1:618 0.0214291
669 *1:608 *1:617 0.124289
670 *1:607 *839:CK 1.4
671 *1:606 *1:615 0.662159
672 *1:605 *1:614 1.4
673 *1:605 *1:613 3.28079
674 *1:603 *1:612 0.0342864
675 *1:601 *1:611 0.0192862
676 *1:600 *1:610 0.0492869
677 *1:599 *1:609 0.904308
678 *1:599 *1:608 1.4
679 *1:598 *1:607 0.047144
680 *1:597 *1:606 1.4
681 *1:596 *1:605 0.745733
682 *1:595 *551:CK 1.4
683 *1:594 *1:603 0.0150003
684 *1:592 *809:CK 1.4
685 *1:591 *1:601 1.4
686 *1:590 *1:600 1.33503
687 *1:589 *1:599 0.124289
688 *1:588 *1:598 0.160718
689 *1:587 *1:597 0.497155
690 *1:587 *1:596 1.4
691 *1:586 *1:595 0.0407153
692 *1:584 *1:594 1.4
693 *1:583 *585:CK 1.4
694 *1:582 *1:592 0.0364295
695 *1:581 *1:591 0.248578
696 *1:581 *1:590 1.4
697 *1:580 *1:589 1.4
698 *1:579 *1:588 1.4
699 *1:579 *1:587 0.621444
700 *1:578 *1:586 0.0257149
701 *1:577 *586:CK 1.4
702 *1:575 *1:584 0.124283
703 *1:574 *1:583 0.0192861
704 *1:573 *1:582 0.0407153
705 *1:571 *1:581 3.23151
706 *1:570 *1:580 0.372866
707 *1:570 *1:579 3.48009
708 *1:569 *1:578 1.4
709 *1:568 *1:577 0.0600013
710 *1:567 *618:CK 1.4
711 *1:566 *1:575 1.4
712 *1:566 *1:574 1.00074
713 *1:565 *1:573 1.4
714 *1:562 *583:CK 1.4
715 *1:561 *1:571 1.4
716 *1:560 *1:570 1.4
717 *1:559 *1:569 0.124289
718 *1:558 *1:568 0.175718
719 *1:557 *1:567 0.0321435
720 *1:556 *1:566 0.124288
721 *1:555 *1:565 0.124289
722 *1:554 *774:CK 1.4
723 *1:553 *615:CK 1.4
724 *1:552 *1:562 0.00857164
725 *1:552 *1:561 0.325722
726 *1:551 *1:560 0.621444
727 *1:551 *1:559 1.4
728 *1:550 *1:558 1.4
729 *1:549 *1:557 0.387865
730 *1:548 *1:556 1.4
731 *1:547 *1:555 1.4
732 *1:546 *1:554 0.0107145
733 *1:545 *1:553 0.0492869
734 *1:545 *1:552 1.7079
735 *1:544 *1:551 0.99431
736 *1:542 *1:550 0.869982
737 *1:542 *1:549 1.4
738 *1:541 *1:548 1.98853
739 *1:540 *1:547 0.248578
740 *1:538 *1:546 0.807877
741 *1:538 *1:545 2.31649
742 *1:537 *1:544 1.4
743 *1:536 *553:CK 1.4
744 *1:535 *1:542 0.869982
745 *1:534 *1:541 1.4
746 *1:532 *1:540 1.4
747 *1:531 *552:CK 1.4
748 *1:530 *1:538 1.4
749 *1:530 *1:537 0.248578
750 *1:529 *1:536 0.0171432
751 *1:528 *1:535 1.4
752 *1:528 *1:534 0.248577
753 *1:527 *554:CK 1.4
754 *1:525 *1:532 0.124289
755 *1:524 *1:531 0.00642873
756 *1:523 *1:530 2.73435
757 *1:522 *1:529 0.021429
758 *1:521 *1:528 1.61575
759 *1:520 *1:527 0.0278577
760 *1:518 *775:CK 1.4
761 *1:517 *1:525 1.4
762 *1:516 *1:524 0.0257149
763 *1:516 *1:523 1.4
764 *1:515 *1:522 1.4
765 *1:513 *1:521 1.4
766 *1:512 *1:520 0.154289
767 *1:510 *841:CK 1.4
768 *1:509 *1:518 0.0364295
769 *1:508 *1:517 0.99431
770 *1:508 *1:516 0.99431
771 *1:507 *1:515 0.124283
772 *1:506 *776:CK 1.4
773 *1:505 *1:513 0.372849
774 *1:505 *1:512 1.4
775 *1:504 *810:CK 1.4
776 *1:503 *1:510 0.00428582
777 *1:502 *1:509 0.904308
778 *1:501 *1:508 1.4
779 *1:500 *1:507 1.4
780 *1:499 *1:506 0.0128574
781 *1:497 *1:505 0.745699
782 *1:496 *1:504 0.00642871
783 *1:495 *1:503 0.0342866
784 *1:494 *1:502 1.4
785 *1:494 *1:501 0.124289
786 *1:493 *1:500 0.870018
787 *1:492 *1:499 0.00642871
788 *1:489 *777:CK 1.4
789 *1:488 *1:497 1.4
790 *1:487 *1:496 0.728587
791 *1:486 *1:495 1.4
792 *1:486 *1:494 0.124289
793 *1:485 *1:493 1.4
794 *1:484 *1:492 1.4
795 *1:483 *587:CK 1.4
796 *1:482 *619:CK 1.4
797 *1:481 *1:489 0.0171432
798 *1:481 *1:488 0.972878
799 *1:480 *1:487 1.4
800 *1:480 *1:486 3.85293
801 *1:478 *1:485 0.248566
802 *1:478 *1:484 0.372849
803 *1:477 *1:483 0.0835732
804 *1:476 *1:482 0.0578584
805 *1:475 *1:481 0.518582
806 *1:473 *1:480 1.73996
807 *1:472 *842:CK 1.4
808 *1:471 *1:478 1.4
809 *1:470 *1:477 1.4
810 *1:469 *1:476 0.0364293
811 *1:468 *1:475 1.4
812 *1:466 *811:CK 1.4
813 *1:465 *1:473 1.4
814 *1:464 *1:472 0.0535726
815 *1:464 *1:471 1.17002
816 *1:463 *1:470 0.994265
817 *1:463 *1:469 1.4
818 *1:462 *1:468 0.124283
819 *1:461 *843:CK 1.4
820 *1:460 *1:466 0.0257148
821 *1:459 *1:465 0.124288
822 *1:459 *1:464 0.818589
823 *1:458 *1:463 2.48566
824 *1:457 *1:462 1.4
825 *1:456 *1:461 0.0257148
826 *1:455 *1:460 1.70789
827 *1:454 *1:459 1.4
828 *1:453 *1:458 1.4
829 *1:453 *1:457 0.870018
830 *1:452 *1:456 0.00642871
831 *1:451 *1:455 1.4
832 *1:451 *1:454 0.994265
833 *1:450 *1:453 0.248577
834 *1:449 *1:452 1.4
835 *1:449 *1:451 1.73996
836 *1:448 *1:450 1.4
837 *1:448 *1:449 1.24283
838 *1:447 *1:448 0.497132
839 *1:445 *1:447 1.4
840 *1:443 *588:CK 1.4
841 *1:441 *1:445 0.994307
842 *1:440 *812:CK 1.4
843 *1:439 *1:443 0.0385708
844 *1:438 *555:CK 1.4
845 *1:437 *1:441 1.4
846 *1:436 *1:440 0.0192854
847 *1:435 *1:439 0.134998
848 *1:434 *1:438 0.0342852
849 *1:432 *1:437 0.248566
850 *1:431 *1:436 0.175712
851 *1:428 *1:435 1.4
852 *1:427 *1:434 1.4
853 *1:426 *778:CK 1.4
854 *1:425 *1:432 1.4
855 *1:424 *1:431 1.4
856 *1:423 *844:CK 1.4
857 *1:422 *620:CK 1.4
858 *1:421 *1:428 2.11281
859 *1:419 *1:427 0.124283
860 *1:418 *1:426 0.0578584
861 *1:418 *1:425 0.807874
862 *1:417 *1:424 1.4914
863 *1:416 *1:423 0.0428565
864 *1:414 *1:422 0.0449993
865 *1:413 *1:421 1.4
866 *1:412 *779:CK 1.4
867 *1:411 *1:419 1.4
868 *1:411 *1:418 0.559291
869 *1:410 *1:417 1.4
870 *1:410 *1:416 0.694275
871 *1:409 *556:CK 1.4
872 *1:408 *1:414 0.0321424
873 *1:408 *1:413 0.372851
874 *1:407 *1:412 0.0492849
875 *1:406 *1:411 3.10709
876 *1:405 *1:410 0.124284
877 *1:404 *1:409 0.0192854
878 *1:403 *1:408 1.4
879 *1:402 *1:407 0.0321424
880 *1:401 *1:406 1.4
881 *1:400 *1:405 1.4
882 *1:399 *1:404 0.0214282
883 *1:398 *1:403 1.36711
884 *1:398 *1:402 1.4
885 *1:397 *1:401 1.73996
886 *1:397 *1:400 0.124283
887 *1:396 *1:399 1.4
888 *1:395 *1:398 0.497132
889 *1:394 *1:397 1.4
890 *1:393 *1:396 0.124283
891 *1:392 *1:395 1.4
892 *1:392 *1:394 2.36139
893 *1:390 *1:393 1.4
894 *1:390 *1:392 0.124284
895 *1:389 *845:CK 1.4
896 *1:388 *1:390 0.497135
897 *1:387 *1:389 0.0407136
898 *1:386 *1:388 1.4
899 *1:385 *1:387 0.0985699
900 *1:382 *1:386 0.621415
901 *1:382 *1:385 1.4
902 *1:381 *813:CK 1.4
903 *1:380 *589:CK 1.4
904 *1:377 *1:382 1.36711
905 *1:376 *1:381 0.0192854
906 *1:375 *1:380 0.0599991
907 *1:374 *621:CK 1.4
908 *1:372 *814:CK 1.4
909 *1:371 *1:377 1.4
910 *1:371 *1:376 0.0707132
911 *1:370 *1:375 0.299995
912 *1:369 *1:374 0.0128569
913 *1:368 *780:CK 1.4
914 *1:367 *1:372 0.0107141
915 *1:367 *1:371 2.53282
916 *1:366 *1:370 1.4
917 *1:365 *1:369 0.177854
918 *1:364 *1:368 0.00428565
919 *1:362 *1:367 0.0771416
920 *1:361 *1:366 2.73423
921 *1:361 *1:365 1.4
922 *1:360 *1:364 0.0342852
923 *1:359 *557:CK 1.4
924 *1:358 *1:362 1.4
925 *1:355 *1:361 1.11855
926 *1:355 *1:360 1.4
927 *1:354 *1:359 0.0235711
928 *1:353 *1:358 1.11855
929 *1:352 *590:CK 1.4
930 *1:351 *622:CK 1.4
931 *1:348 *1:355 0.745698
932 *1:347 *1:354 0.158569
933 *1:347 *1:353 1.4
934 *1:346 *1:352 0.126425
935 *1:345 *1:351 0.0021428
936 *1:344 *781:CK 1.4
937 *1:343 *846:CK 1.4
938 *1:342 *1:348 1.4
939 *1:342 *1:347 0.124284
940 *1:341 *1:346 1.4
941 *1:340 *1:345 0.0257137
942 *1:339 *1:344 0.0321421
943 *1:338 *1:343 0.0192854
944 *1:338 *1:342 0.0899986
945 *1:337 *1:341 2.60995
946 *1:337 *1:340 1.4
947 *1:336 *1:339 0.098569
948 *1:335 *1:338 0.655704
949 *1:334 *1:337 0.869982
950 *1:334 *1:336 1.4
951 *1:333 *1:335 1.4
952 *1:332 *1:334 0.248566
953 *1:331 *1:333 0.497132
954 *1:329 *1:332 1.4
955 *1:328 *1:331 1.4
956 *1:327 *558:CK 1.4
957 *1:325 *1:329 0.124283
958 *1:325 *1:328 4.84704
959 *1:324 *1:327 0.0514273
960 *1:323 *847:CK 1.4
961 *1:322 *1:325 1.4
962 *1:321 *1:324 0.0707126
963 *1:320 *1:323 0.0235709
964 *1:319 *1:322 0.248566
965 *1:319 *1:321 1.4
966 *1:318 *1:320 0.248565
967 *1:317 *1:319 0.124283
968 *1:317 *1:318 1.4
969 *1:315 *1:317 0.869982
970 *1:312 *815:CK 1.4
971 *1:311 *1:315 1.4
972 *1:309 *559:CK 1.4
973 *1:308 *816:CK 1.4
974 *1:307 *1:312 0.0321421
975 *1:307 *1:311 0.197138
976 *1:306 *848:CK 1.4
977 *1:305 *1:309 0.0342849
978 *1:304 *1:308 0.00642841
979 *1:303 *1:307 2.78565
980 *1:302 *1:306 0.0299993
981 *1:301 *1:305 0.010714
982 *1:300 *1:304 0.0321421
983 *1:299 *1:303 1.4
984 *1:297 *1:302 0.010714
985 *1:296 *1:301 1.4
986 *1:295 *1:300 1.4
987 *1:295 *1:299 0.37285
988 *1:294 *591:CK 1.4
989 *1:292 *1:297 1.4
990 *1:291 *1:296 0.124283
991 *1:291 *1:295 0.994266
992 *1:290 *1:294 0.0149996
993 *1:289 *623:CK 1.4
994 *1:287 *1:292 0.124283
995 *1:286 *1:291 1.4
996 *1:285 *1:290 0.00428561
997 *1:284 *1:289 0.0578557
998 *1:283 *782:CK 1.4
999 *1:282 *1:287 1.4
1000 *1:282 *1:286 0.248565
1001 *1:281 *1:285 1.4
1002 *1:280 *1:284 0.077141
1003 *1:279 *1:283 0.0257137
1004 *1:278 *1:282 0.621413
1005 *1:277 *1:281 2.2371
1006 *1:277 *1:280 1.4
1007 *1:276 *1:279 0.666412
1008 *1:275 *1:278 1.4
1009 *1:274 *1:277 0.248566
1010 *1:273 *1:276 1.4
1011 *1:273 *1:275 0.37285
1012 *1:271 *1:274 1.4
1013 *1:270 *1:273 0.869982
1014 *1:269 *560:CK 1.4
1015 *1:268 *1:271 0.372848
1016 *1:268 *1:270 1.4
1017 *1:265 *1:269 0.0192852
1018 *1:265 *1:268 3.62777
1019 *1:264 *783:CK 1.4
1020 *1:262 *817:CK 1.4
1021 *1:261 *1:265 0.224995
1022 *1:260 *1:264 0.0535701
1023 *1:259 *849:CK 1.4
1024 *1:258 *1:262 0.0449989
1025 *1:257 *1:261 1.4
1026 *1:256 *1:260 0.0514273
1027 *1:255 *1:259 0.0342852
1028 *1:254 *1:258 0.0364277
1029 *1:253 *1:257 0.37285
1030 *1:253 *1:256 1.4
1031 *1:252 *1:255 0.589277
1032 *1:251 *1:254 1.4
1033 *1:250 *1:253 0.37285
1034 *1:250 *1:252 1.4
1035 *1:249 *1:251 0.37285
1036 *1:247 *1:250 0.745699
1037 *1:246 *1:249 1.4
1038 *1:245 *818:CK 1.4
1039 *1:243 *1:247 1.4
1040 *1:243 *1:246 0.994261
1041 *1:242 *1:245 0.0214283
1042 *1:240 *592:CK 1.4
1043 *1:239 *1:243 2.73425
1044 *1:238 *1:242 0.11357
1045 *1:237 *593:CK 1.4
1046 *1:236 *1:240 0.00857131
1047 *1:235 *1:239 1.4
1048 *1:234 *1:238 1.4
1049 *1:233 *1:237 0.0278567
1050 *1:232 *1:236 0.0942844
1051 *1:229 *1:235 0.124289
1052 *1:229 *1:234 0.745733
1053 *1:228 *1:233 0.0149998
1054 *1:227 *1:232 1.4
1055 *1:226 *624:CK 1.4
1056 *1:225 *850:CK 1.4
1057 *1:224 *1:229 1.4
1058 *1:223 *1:228 1.4
1059 *1:221 *1:227 1.86433
1060 *1:220 *1:226 0.00214283
1061 *1:219 *1:225 0.0192854
1062 *1:218 *1:224 0.994271
1063 *1:217 *1:223 0.99431
1064 *1:214 *784:CK 1.4
1065 *1:213 *1:221 1.4
1066 *1:213 *1:220 1.03499
1067 *1:212 *1:219 0.349281
1068 *1:211 *1:218 1.4
1069 *1:210 *1:217 1.4
1070 *1:209 *625:CK 1.4
1071 *1:208 *561:CK 1.4
1072 *1:207 *1:214 0.0514278
1073 *1:206 *1:213 0.497136
1074 *1:205 *1:212 1.4
1075 *1:205 *1:211 0.124289
1076 *1:203 *1:210 1.18498
1077 *1:203 *1:209 0.0235711
1078 *1:202 *1:208 0.036428
1079 *1:201 *1:207 0.0385709
1080 *1:200 *1:206 1.4
1081 *1:199 *1:205 1.61575
1082 *1:198 *594:CK 1.4
1083 *1:196 *1:203 0.0578563
1084 *1:195 *1:202 0.0149998
1085 *1:194 *1:201 1.4
1086 *1:193 *1:200 1.24289
1087 *1:192 *1:199 1.4
1088 *1:191 *1:198 0.0449994
1089 *1:190 *626:CK 1.4
1090 *1:189 *1:196 1.4
1091 *1:188 *1:195 1.4
1092 *1:187 *1:194 0.621444
1093 *1:186 *1:193 1.4
1094 *1:186 *1:192 0.497136
1095 *1:185 *1:191 0.0385709
1096 *1:184 *1:190 0.0214283
1097 *1:183 *1:189 1.24289
1098 *1:182 *1:188 0.248578
1099 *1:181 *1:187 1.4
1100 *1:181 *1:186 0.62142
1101 *1:180 *1:185 1.4
1102 *1:179 *1:184 0.0342852
1103 *1:178 *1:183 1.4
1104 *1:177 *1:182 1.4
1105 *1:177 *1:181 0.372852
1106 *1:176 *1:180 0.124289
1107 *1:175 *1:179 1.4
1108 *1:174 *1:178 0.124284
1109 *1:174 *1:177 0.994271
1110 *1:173 *1:176 1.4
1111 *1:172 *1:175 0.124289
1112 *1:171 *1:174 1.4
1113 *1:170 *1:173 1.11856
1114 *1:170 *1:172 1.4
1115 *1:169 *1:171 1.36718
1116 *1:167 *1:170 1.11856
1117 *1:167 *1:169 1.4
1118 *1:166 *562:CK 1.4
1119 *1:164 *1:167 0.248568
1120 *1:163 *1:166 0.00214283
1121 *1:162 *785:CK 1.4
1122 *1:161 *1:164 1.4
1123 *1:160 *1:163 0.441422
1124 *1:159 *1:162 0.049285
1125 *1:158 *1:161 1.49147
1126 *1:158 *1:160 1.4
1127 *1:157 *1:159 0.186426
1128 *1:156 *1:158 0.372866
1129 *1:156 *1:157 1.4
1130 *1:155 *1:156 0.745733
1131 *1:154 *1:155 1.4
1132 *1:152 *1:154 1.11856
1133 *1:149 *596:CK 1.4
1134 *1:148 *1:152 1.4
1135 *1:147 *819:CK 1.4
1136 *1:146 *595:CK 1.4
1137 *1:145 *1:149 0.0149997
1138 *1:144 *1:148 3.23147
1139 *1:143 *1:147 0.0535705
1140 *1:142 *1:146 0.0257138
1141 *1:141 *1:145 0.287138
1142 *1:140 *1:144 1.4
1143 *1:140 *1:143 0.762843
1144 *1:139 *1:142 0.218567
1145 *1:138 *1:141 1.4
1146 *1:137 *1:140 0.497134
1147 *1:135 *1:139 1.4
1148 *1:135 *1:138 1.73996
1149 *1:134 *1:137 1.4
1150 *1:133 *851:CK 1.4
1151 *1:132 *1:135 0.248565
1152 *1:130 *1:134 1.24283
1153 *1:129 *1:133 0.00428564
1154 *1:126 *1:132 1.4
1155 *1:125 *627:CK 1.4
1156 *1:124 *1:130 1.4
1157 *1:124 *1:129 0.214282
1158 *1:123 *786:CK 1.4
1159 *1:122 *563:CK 1.4
1160 *1:121 *1:126 1.13569
1161 *1:121 *1:125 0.0578561
1162 *1:120 *1:124 0.745701
1163 *1:119 *1:123 0.0492848
1164 *1:118 *1:122 0.0578561
1165 *1:117 *1:121 0.977125
1166 *1:116 *1:120 1.4
1167 *1:115 *1:119 0.295709
1168 *1:114 *1:118 0.231424
1169 *1:113 *1:117 1.4
1170 *1:112 *1:116 2.98278
1171 *1:112 *1:115 1.4
1172 *1:111 *1:114 1.4
1173 *1:111 *1:113 0.248565
1174 *1:110 *1:112 0.621413
1175 *1:110 *1:111 0.372848
1176 *1:107 *1:110 1.4
1177 *1:106 *852:CK 1.4
1178 *1:105 *628:CK 1.4
1179 *1:104 *1:107 1.15069
1180 *1:104 *1:106 0.023571
1181 *1:103 *1:105 0.0385707
1182 *1:101 *1:104 0.216425
1183 *1:100 *1:103 0.0364279
1184 *1:99 *820:CK 1.4
1185 *1:98 *1:101 1.4
1186 *1:97 *1:100 1.4
1187 *1:96 *1:99 0.0321423
1188 *1:95 *1:98 0.124283
1189 *1:95 *1:97 2.11281
1190 *1:94 *1:96 0.0642845
1191 *1:93 *1:95 1.4
1192 *1:92 *1:94 1.4
1193 *1:91 *1:93 0.869984
1194 *1:89 *1:92 0.497131
1195 *1:89 *1:91 1.4
1196 *1:87 *564:CK 1.4
1197 *1:86 *1:89 0.869979
1198 *1:85 *787:CK 1.4
1199 *1:84 *1:87 0.00214282
1200 *1:82 *1:86 1.4
1201 *1:81 *1:85 0.0492848
1202 *1:80 *1:84 0.102855
1203 *1:79 *853:CK 1.4
1204 *1:78 *1:82 0.745701
1205 *1:77 *1:81 0.259281
1206 *1:76 *1:80 1.4
1207 *1:75 *1:79 0.0128569
1208 *1:74 *1:78 1.4
1209 *1:73 *1:77 1.4
1210 *1:73 *1:76 0.372848
1211 *1:72 *1:75 0.0128569
1212 *1:70 *1:74 0.497131
1213 *1:70 *1:73 0.124283
1214 *1:69 *1:72 1.4
1215 *1:68 *821:CK 1.4
1216 *1:67 *1:70 1.4
1217 *1:66 *1:69 0.372848
1218 *1:64 *1:68 0.0428564
1219 *1:63 *1:67 1.4914
1220 *1:63 *1:66 1.4
1221 *1:62 *597:CK 1.4
1222 *1:61 *1:64 0.154283
1223 *1:60 *1:63 0.994268
1224 *1:59 *1:62 0.0428582
1225 *1:58 *1:61 1.4
1226 *1:57 *1:60 1.4
1227 *1:56 *1:59 0.0300007
1228 *1:54 *1:58 0.497131
1229 *1:54 *1:57 0.124283
1230 *1:53 *1:56 1.4
1231 *1:52 *629:CK 1.4
1232 *1:51 *1:54 1.4
1233 *1:50 *1:53 0.248565
1234 *1:48 *1:52 0.0514298
1235 *1:47 *1:51 0.745709
1236 *1:47 *1:50 1.4
1237 *1:46 *788:CK 1.4
1238 *1:44 *1:48 0.0300007
1239 *1:42 *1:47 3.12436
1240 *1:42 *1:46 0.0492869
1241 *1:41 *565:CK 1.4
1242 *1:40 *1:44 1.4
1243 *1:39 *854:CK 1.4
1244 *1:37 *1:42 0.145718
1245 *1:37 *1:41 0.0107145
1246 *1:36 *1:40 0.124283
1247 *1:35 *1:39 0.0321436
1248 *1:34 *822:CK 1.4
1249 *1:33 *1:37 0.0857164
1250 *1:33 *1:36 1.4
1251 *1:32 *1:35 0.0728589
1252 *1:32 *1:34 0.00214291
1253 *1:31 *1:33 0.372866
1254 *1:30 *1:32 0.0278578
1255 *1:29 *1:31 1.4
1256 *1:28 *1:30 1.4
1257 *1:28 *1:29 0.497131
1258 *1:26 *1:28 0.372848
1259 *1:23 *855:CK 1.4
1260 *1:22 *1:26 1.4
1261 *1:21 *789:CK 1.4
1262 *1:18 *823:CK 1.4
1263 *1:17 *1:23 0.0600015
1264 *1:16 *1:22 2.37863
1265 *1:16 *1:21 0.0192862
1266 *1:15 *566:CK 1.4
1267 *1:14 *630:CK 1.4
1268 *1:13 *1:18 0.0171433
1269 *1:13 *1:17 0.0192862
1270 *1:12 *1:16 0.107145
1271 *1:11 *1:15 0.0342866
1272 *1:10 *1:14 0.0278578
1273 *1:9 *1:13 0.0321436
1274 *1:8 *1:12 1.4
1275 *1:7 *1:11 0.156432
1276 *1:7 *1:10 0.00642873
1277 *1:6 *1:9 1.4
1278 *1:6 *1:8 0.124283
1279 *1:5 *1:7 1.4
1280 *1:5 *1:6 0.124283
1281 *1:4 *1:5 0.621413
1282 *1:3 *1:4 1.4
1283 *1:2 *1:3 0.342865
1284 *1:1 *1:2 0.00428582
1285 *598:CK *1:1 1.4
*END

*D_NET *2 0.000432685

*CONN
*I *762:A I *C 5.5215 97.8125 *L 0.00163 *D INVXL
*P *2 I *C 5.655 101.79 *L 0

*CAP
1 *2:1 7.10615e-06
2 *2:2 0.000216343
3 *2 0.000209237

*RES
1 *2:2 *2 1.70361
2 *2:1 *2:2 0.0578584
3 *762:A *2:1 1.4
*END

*D_NET *3 0.00515726

*CONN
*I *604:SI I *C 76.224 34.596 *L 0.00276 *D SDFFRHQX1
*P *3 O *C 69.745 0 *L 0
*I *668:B I *C 69.4295 37.0955 *L 0.00184 *D MX2X1
*I *917:B0 I *C 68.7885 36.6505 *L 0.00163 *D AOI222XL
*I *603:Q O *C 64.653 38.512 *L 0 *D SDFFRHQX1

*CAP
1 *3:1 5.03155e-06
2 *3:2 5.03155e-06
3 *3:4 1.76104e-05
4 *3:5 1.76104e-05
5 *3:6 0.000307584
6 *3:7 0.000321566
7 *3:8 0.00171598
8 *3:9 1.39811e-05
9 *3:10 0.00171598
10 *3:11 0.000108178
11 *3:13 0.000108178
12 *3:16 6.81775e-05
13 *3:17 6.69197e-05
14 *3:18 1.25789e-06
15 *3:19 2.79622e-05
16 *3:21 0.000237679
17 *3:22 8.93101e-05
18 *3:23 0.000209717
19 *3:24 9.35869e-05
20 *3:25 4.27682e-06
21 *3:26 4.27682e-06
22 *3:27 1.08178e-05
23 *3:29 6.54102e-06

*RES
1 *3:29 *603:Q 1.4
2 *3:27 *3:29 0.0557129
3 *3:26 *917:B0 1.4
4 *3:25 *3:27 0.0364277
5 *3:24 *3:26 0.0364277
6 *3:23 *3:25 1.4
7 *3:22 *3:24 0.760696
8 *3:21 *3:23 1.86424
9 *3:21 *3:22 1.4
10 *3:19 *3:21 0.248565
11 *3:18 *668:B 1.4
12 *3:17 *3:19 1.4
13 *3:16 *3:18 0.010714
14 *3:16 *3:17 0.569986
15 *3:15 *3:16 1.4
16 *3:13 *3:15 1.4
17 *3:12 *3 1.4
18 *3:11 *3:13 0.921406
19 *3:10 *3:12 1.4
20 *3:9 *3:11 1.4
21 *3:8 *3:10 14.9761
22 *3:7 *3:9 0.124283
23 *3:7 *3:8 1.4
24 *3:6 *3:7 2.73422
25 *3:5 *3:6 1.4
26 *3:4 *3:5 0.149996
27 *3:3 *3:4 1.4
28 *3:2 *3:3 1.4
29 *3:1 *3:2 0.0428561
30 *604:SI *3:1 1.4
*END

*D_NET *4 0.00768161

*CONN
*I *603:SI I *C 73.063 39.092 *L 0.00276 *D SDFFRHQX1
*I *916:B0 I *C 69.716 46.2625 *L 0.00163 *D AOI222XL
*I *683:B I *C 71.1925 57.469 *L 0.00184 *D MX2X1
*I *602:Q O *C 65.7735 58.9275 *L 0 *D SDFFRHQX1
*P *4 O *C 110.78 50.315 *L 0

*CAP
1 *4:1 6.54102e-06
2 *4:2 6.54102e-06
3 *4:4 0.000272962
4 *4:5 0.000272962
5 *4:6 0.000153792
6 *4:7 0.000153792
7 *4:8 8.80522e-05
8 *4:9 0.000643094
9 *4:10 0.000567311
10 *4:11 1.50947e-06
11 *4:12 1.37789e-05
12 *4:13 0.000204087
13 *4:15 7.28881e-05
14 *4:16 0.000204087
15 *4:17 8.74657e-05
16 *4:18 6.48559e-05
17 *4:19 1.45776e-05
18 *4:20 1.82927e-05
19 *4:21 6.91321e-05
20 *4:22 0.000363533
21 *4:23 1.82927e-05
22 *4:24 4.27621e-06
23 *4:25 0.000363533
24 *4:28 0.00200812
25 *4 0.00200812

*RES
1 *4:28 *4 16.8408
2 *4:25 *4:28 1.4
3 *4:24 *602:Q 1.4
4 *4:23 *683:B 1.4
5 *4:22 *4:25 3.2314
6 *4:21 *4:24 0.0385713
7 *4:20 *4:23 0.164999
8 *4:19 *4:22 1.4
9 *4:18 *4:21 0.584998
10 *4:17 *4:20 1.4
11 *4:17 *4:19 0.124289
12 *4:16 *4:18 1.4
13 *4:15 *4:17 0.621444
14 *4:13 *4:16 1.74004
15 *4:12 *4:15 1.4
16 *4:11 *916:B0 1.4
17 *4:10 *4:13 1.4
18 *4:10 *4:12 0.124285
19 *4:9 *4:11 0.0128568
20 *4:9 *4:10 4.84279
21 *4:8 *4:9 0.749982
22 *4:7 *4:8 1.4
23 *4:6 *4:7 1.36711
24 *4:5 *4:6 1.4
25 *4:4 *4:5 2.32494
26 *4:3 *4:4 1.4
27 *4:2 *4:3 1.4
28 *4:1 *4:2 0.0557129
29 *603:SI *4:1 1.4
*END

*D_NET *5 0.00564901

*CONN
*I *602:SI I *C 74.1835 59.5075 *L 0.00276 *D SDFFRHQX1
*I *915:B0 I *C 68.3775 61.8265 *L 0.00163 *D AOI222XL
*P *5 O *C 68.005 101.79 *L 0
*I *681:B I *C 67.962 63.621 *L 0.00184 *D MX2X1
*I *601:Q O *C 61.3485 64.253 *L 0 *D SDFFRHQX1

*CAP
1 *5:1 4.27621e-06
2 *5:2 3.58727e-05
3 *5:3 3.15965e-05
4 *5:4 0.000262397
5 *5:5 0.000262397
6 *5:6 8.26734e-05
7 *5:7 0.000192905
8 *5:8 0.000110231
9 *5:9 2.91552e-05
10 *5:10 4.37329e-05
11 *5:11 2.91552e-05
12 *5:12 0.000379018
13 *5:13 4.27621e-06
14 *5:14 0.00188382
15 *5:15 2.92208e-05
16 *5:16 0.000335285
17 *5:17 8.31486e-06
18 *5:18 0.00188382
19 *5:19 3.13589e-05
20 *5:20 9.50269e-07
21 *5:21 4.03864e-06
22 *5:23 2.13811e-06
23 *5:24 1.66297e-06
24 *5:28 7.12702e-07

*RES
1 *5:28 *601:Q 1.4
2 *5:24 *5:28 0.00642855
3 *5:23 *681:B 1.4
4 *5:22 *5 1.4
5 *5:21 *915:B0 1.4
6 *5:20 *5:24 0.00857139
7 *5:19 *5:23 0.0192856
8 *5:18 *5:22 1.4
9 *5:17 *5:21 0.0364284
10 *5:16 *5:20 1.4
11 *5:15 *5:19 0.26357
12 *5:14 *5:18 16.0948
13 *5:13 *5:17 0.0385713
14 *5:12 *5:16 2.85864
15 *5:12 *5:15 1.4
16 *5:12 *5:14 1.4
17 *5:11 *5:13 1.4
18 *5:10 *5:12 0.372866
19 *5:9 *5:11 0.248577
20 *5:8 *5:10 1.4
21 *5:7 *5:9 1.4
22 *5:7 *5:8 0.994282
23 *5:6 *5:7 0.745711
24 *5:5 *5:6 1.4
25 *5:4 *5:5 2.2372
26 *5:3 *5:4 1.4
27 *5:2 *5:3 0.284999
28 *5:1 *5:2 0.0385713
29 *602:SI *5:1 1.4
*END

*D_NET *6 0.00689313

*CONN
*I *601:SI I *C 69.7585 64.833 *L 0.00276 *D SDFFRHQX1
*P *6 O *C 51.475 101.79 *L 0
*I *914:B0 I *C 48.1355 63.107 *L 0.00163 *D AOI222XL
*I *680:B I *C 47.3635 64.99 *L 0.00184 *D MX2X1
*I *600:Q O *C 40.4425 65.3105 *L 0 *D SDFFRHQX1

*CAP
1 *6:1 7.12702e-07
2 *6:2 1.66297e-06
3 *6:3 9.50269e-07
4 *6:4 0.000917102
5 *6:5 0.000917102
6 *6:6 1.39799e-05
7 *6:7 0.00186375
8 *6:8 0.00184977
9 *6:9 0.000168748
10 *6:11 0.000196873
11 *6:13 9.6413e-05
12 *6:14 0.000351559
13 *6:15 0.000103162
14 *6:16 5.54375e-06
15 *6:17 0.000323434
16 *6:18 6.74891e-06
17 *6:19 7.95407e-06
18 *6:20 1.39799e-05
19 *6:22 2.41032e-06
20 *6:23 1.39799e-05
21 *6:25 1.40624e-05
22 *6:26 1.40624e-05
23 *6:27 4.09755e-06
24 *6:28 4.57962e-06
25 *6:29 4.82065e-07

*RES
1 *6:29 *600:Q 1.4
2 *6:28 *6:29 0.00428561
3 *6:27 *6:28 0.0364277
4 *6:26 *6:27 1.4
5 *6:25 *6:26 0.124283
6 *6:23 *6:25 1.4
7 *6:22 *680:B 1.4
8 *6:20 *6:23 0.124283
9 *6:19 *6:22 0.021428
10 *6:18 *914:B0 1.4
11 *6:17 *6:20 1.4
12 *6:16 *6:19 0.0492845
13 *6:15 *6:18 0.0599985
14 *6:14 *6:17 2.8585
15 *6:14 *6:16 1.4
16 *6:13 *6:15 0.857122
17 *6:11 *6:14 0.248565
18 *6:11 *6:13 1.4
19 *6:10 *6 1.4
20 *6:9 *6:11 1.49139
21 *6:8 *6:10 1.4
22 *6:7 *6:9 1.4
23 *6:7 *6:8 15.7223
24 *6:6 *6:7 0.124283
25 *6:5 *6:6 1.4
26 *6:4 *6:5 7.83018
27 *6:3 *6:4 1.4
28 *6:2 *6:3 0.00857139
29 *6:1 *6:2 0.00642855
30 *601:SI *6:1 1.4
*END

*D_NET *7 0.00566046

*CONN
*I *682:B I *C 42.5295 60.642 *L 0.00184 *D MX2X1
*I *913:B0 I *C 43.1045 60.6735 *L 0.00163 *D AOI222XL
*I *600:SI I *C 48.8525 65.8905 *L 0.00276 *D SDFFRHQX1
*P *7 O *C 42.775 101.79 *L 0
*I *599:Q O *C 36.3475 58.6855 *L 0 *D SDFFRHQX1

*CAP
1 *7:1 2.16929e-06
2 *7:2 7.71304e-06
3 *7:3 5.54375e-06
4 *7:4 2.81247e-05
5 *7:5 2.81247e-05
6 *7:6 3.85652e-06
7 *7:7 5.78478e-06
8 *7:9 1.92826e-06
9 *7:10 3.85652e-06
10 *7:12 0.000255494
11 *7:13 0.000251638
12 *7:14 0.000323434
13 *7:15 0.00029531
14 *7:16 0.000323434
15 *7:17 0.000281247
16 *7:18 1.40624e-05
17 *7:19 9.97874e-05
18 *7:20 4.09755e-06
19 *7:21 0.00180783
20 *7:22 9.97874e-05
21 *7:23 4.57962e-06
22 *7:24 0.00180783
23 *7:26 4.82065e-07
24 *7:28 2.16929e-06
25 *7:31 2.16929e-06

*RES
1 *7:31 *599:Q 1.4
2 *7:28 *7:31 0.0192852
3 *7:27 *7 1.4
4 *7:26 *600:SI 1.4
5 *7:25 *7:28 1.4
6 *7:24 *7:27 1.4
7 *7:23 *7:26 0.00428561
8 *7:22 *7:25 1.4
9 *7:21 *7:24 15.3494
10 *7:20 *7:23 0.0364277
11 *7:19 *7:22 0.887121
12 *7:18 *7:21 1.4
13 *7:17 *7:20 1.4
14 *7:16 *7:19 1.4
15 *7:15 *7:18 0.124283
16 *7:15 *7:17 2.48565
17 *7:14 *7:16 2.8585
18 *7:13 *7:15 1.4
19 *7:12 *7:14 1.4
20 *7:12 *7:13 2.23709
21 *7:10 *7:12 0.0342849
22 *7:9 *913:B0 1.4
23 *7:8 *7:10 1.4
24 *7:7 *7:9 0.0171424
25 *7:7 *7:8 1.4
26 *7:6 *7:7 0.0342849
27 *7:5 *7:6 1.4
28 *7:4 *7:5 0.248565
29 *7:3 *7:4 1.4
30 *7:2 *7:3 0.0492845
31 *7:1 *7:2 0.0192852
32 *682:B *7:1 1.4
*END

*D_NET *8 0.00680206

*CONN
*I *599:SI I *C 44.7575 59.2655 *L 0.00276 *D SDFFRHQX1
*I *912:B0 I *C 42.8835 43.759 *L 0.00163 *D AOI222XL
*I *679:B I *C 42.542 42.4715 *L 0.00184 *D MX2X1
*I *598:Q O *C 37.853 39.656 *L 0 *D SDFFRHQX1
*P *8 O *C 0 46.255 *L 0

*CAP
1 *8:1 2.16929e-06
2 *8:2 2.16929e-06
3 *8:4 0.000741577
4 *8:5 0.000741577
5 *8:6 9.6556e-05
6 *8:7 9.6556e-05
7 *8:8 2.91635e-05
8 *8:9 2.91635e-05
9 *8:10 1.37937e-05
10 *8:11 5.78241e-06
11 *8:12 0.000234493
12 *8:13 1.13134e-05
13 *8:14 5.90812e-05
14 *8:15 0.000275874
15 *8:16 5.531e-06
16 *8:17 6.18467e-05
17 *8:18 0.000200625
18 *8:19 5.51748e-05
19 *8:21 2.7655e-06
20 *8:22 0.000201127
21 *8:23 0.000131236
22 *8:25 5.02819e-07
23 *8:26 0.000131236
24 *8:28 0.00183637
25 *8 0.00183637

*RES
1 *8:28 *8 15.7218
2 *8:26 *8:28 1.4
3 *8:25 *598:Q 1.4
4 *8:23 *8:26 1.1186
5 *8:22 *8:25 0.00428582
6 *8:21 *679:B 1.4
7 *8:19 *8:23 1.4
8 *8:18 *8:22 1.71004
9 *8:17 *8:21 0.023572
10 *8:16 *912:B0 1.4
11 *8:15 *8:19 0.497131
12 *8:15 *8:18 1.4
13 *8:14 *8:17 0.503584
14 *8:13 *8:16 0.047144
15 *8:12 *8:15 1.98852
16 *8:12 *8:14 1.4
17 *8:11 *8:13 0.0492869
18 *8:10 *8:12 0.124283
19 *8:10 *8:11 1.4
20 *8:9 *8:10 1.4
21 *8:8 *8:9 0.248577
22 *8:7 *8:8 1.4
23 *8:6 *8:7 0.869979
24 *8:5 *8:6 1.4
25 *8:4 *8:5 6.44572
26 *8:3 *8:4 1.4
27 *8:2 *8:3 1.4
28 *8:1 *8:2 0.0192852
29 *599:SI *8:1 1.4
*END

*D_NET *9 0.00487483

*CONN
*I *598:SI I *C 46.263 40.236 *L 0.00276 *D SDFFRHQX1
*I *925:B0 I *C 46.03 36.3905 *L 0.00163 *D AOI222XL
*I *678:B I *C 46.9825 31.1965 *L 0.00184 *D MX2X1
*I *597:Q O *C 42.5845 25.8825 *L 0 *D SDFFRHQX1
*P *9 O *C 45.385 0 *L 0

*CAP
1 *9:1 5.02819e-07
2 *9:2 4.02255e-06
3 *9:3 3.51973e-06
4 *9:4 1.37937e-05
5 *9:5 1.37937e-05
6 *9:6 0.000189814
7 *9:7 0.000452034
8 *9:9 0.000276802
9 *9:10 3.26832e-06
10 *9:11 5.51748e-05
11 *9:12 1.45817e-05
12 *9:13 3.26832e-06
13 *9:14 5.51748e-05
14 *9:15 9.6556e-05
15 *9:17 1.00564e-06
16 *9:18 9.6556e-05
17 *9:19 8.0451e-06
18 *9:20 0.000248251
19 *9:21 7.03946e-06
20 *9:22 0.000385997
21 *9:24 8.14558e-05
22 *9:25 0.000137745
23 *9:26 8.14558e-05
24 *9:27 1.62912e-05
25 *9:28 3.69432e-06
26 *9:29 1.62912e-05
27 *9:30 8.97193e-06
28 *9:31 0.0012244
29 *9:32 5.2776e-06
30 *9:33 0.0012244
31 *9:35 6.51647e-05
32 *9:36 6.51647e-05
33 *9:37 7.65253e-06
34 *9 7.65253e-06

*RES
1 *9:37 *9 0.0621417
2 *9:36 *9:37 1.4
3 *9:35 *9:36 0.497131
4 *9:33 *9:35 1.4
5 *9:32 *597:Q 1.4
6 *9:31 *9:33 9.94268
7 *9:30 *9:32 0.0428564
8 *9:29 *9:31 1.4
9 *9:28 *9:30 0.0299995
10 *9:27 *9:29 0.124283
11 *9:26 *9:28 1.4
12 *9:25 *9:27 1.4
13 *9:24 *9:26 0.621413
14 *9:22 *9:25 1.11855
15 *9:22 *9:24 1.4
16 *9:21 *678:B 1.4
17 *9:20 *9:22 2.11291
18 *9:19 *9:21 0.0600015
19 *9:18 *9:20 1.4
20 *9:17 *9:19 0.00857164
21 *9:15 *9:18 0.869979
22 *9:14 *9:17 1.4
23 *9:13 *925:B0 1.4
24 *9:12 *9:15 1.4
25 *9:11 *9:14 0.497131
26 *9:10 *9:13 0.0278578
27 *9:9 *9:12 0.124289
28 *9:9 *9:11 1.4
29 *9:8 *9:10 1.4
30 *9:7 *9:9 2.23505
31 *9:7 *9:8 1.4
32 *9:6 *9:7 1.6179
33 *9:5 *9:6 1.4
34 *9:4 *9:5 0.124283
35 *9:3 *9:4 1.4
36 *9:2 *9:3 0.0300007
37 *9:1 *9:2 0.00428582
38 *598:SI *9:1 1.4
*END

*D_NET *10 0.00390053

*CONN
*I *597:SI I *C 50.9945 26.4625 *L 0.00276 *D SDFFRHQX1
*I *677:B I *C 49.688 11.521 *L 0.00184 *D MX2X1
*I *911:B0 I *C 48.5505 22.252 *L 0.00163 *D AOI222XL
*P *10 O *C 48.575 0 *L 0
*I *596:Q O *C 44.7685 7.1965 *L 0 *D SDFFRHQX1

*CAP
1 *10:1 5.02819e-06
2 *10:2 8.54792e-06
3 *10:3 3.51973e-06
4 *10:4 2.75874e-05
5 *10:5 2.75874e-05
6 *10:6 0.000228491
7 *10:7 0.000228491
8 *10:8 9.7747e-05
9 *10:9 0.000162912
10 *10:10 0.000562856
11 *10:11 6.51647e-05
12 *10:12 0.000859458
13 *10:13 3.43044e-06
14 *10:14 2.37492e-06
15 *10:15 0.000294226
16 *10:16 4.74984e-06
17 *10:18 6.51647e-05
18 *10:19 1.3194e-06
19 *10:20 6.51647e-05
20 *10:22 0.000329059
21 *10:23 1.53051e-05
22 *10 0.000313754
23 *10:25 0.000211785
24 *10:26 0.000211785
25 *10:27 5.0665e-05
26 *10:28 5.25122e-05
27 *10:29 1.84716e-06

*RES
1 *10:29 *596:Q 1.4
2 *10:28 *10:29 0.0149997
3 *10:27 *10:28 0.411421
4 *10:26 *10:27 1.4
5 *10:25 *10:26 1.61567
6 *10:23 *10:25 1.4
7 *10:22 *10 2.54781
8 *10:22 *10:23 0.124283
9 *10:20 *10:22 1.4
10 *10:19 *911:B0 1.4
11 *10:18 *10:20 0.497131
12 *10:16 *10:19 0.0107141
13 *10:15 *10:18 1.4
14 *10:14 *677:B 1.4
15 *10:13 *10:16 0.0278566
16 *10:12 *10:15 2.38924
17 *10:12 *10:14 0.0192854
18 *10:11 *10:13 1.4
19 *10:10 *10:12 4.57063
20 *10:9 *10:11 0.497131
21 *10:9 *10:10 1.4
22 *10:8 *10:9 0.745696
23 *10:7 *10:8 1.4
24 *10:6 *10:7 1.86426
25 *10:5 *10:6 1.4
26 *10:4 *10:5 0.248565
27 *10:3 *10:4 1.4
28 *10:2 *10:3 0.0300007
29 *10:1 *10:2 0.0428582
30 *597:SI *10:1 1.4
*END

*D_NET *11 0.00299425

*CONN
*I *942:B0 I *C 47.2655 12.3115 *L 0.00163 *D AOI222XL
*P *11 O *C 47.125 0 *L 0
*I *596:SI I *C 53.1785 7.7765 *L 0.00276 *D SDFFRHQX1
*I *676:B I *C 47.057 8.2375 *L 0.00184 *D MX2X1
*I *595:Q O *C 40.687 6.013 *L 0 *D SDFFRHQX1

*CAP
1 *11:1 7.38865e-06
2 *11:2 8.18029e-06
3 *11:3 7.91641e-07
4 *11:4 1.62912e-05
5 *11:5 1.62912e-05
6 *11:6 0.000244881
7 *11:7 0.000290796
8 *11:8 0.000317117
9 *11:9 4.59152e-05
10 *11:10 0.000317117
11 *11:11 1.62912e-05
12 *11:12 4.38256e-06
13 *11:13 0.000374697
14 *11:14 6.08689e-06
15 *11:15 0.000434875
16 *11:16 0.000358406
17 *11:17 1.70433e-06
18 *11:18 7.89002e-05
19 *11 0.000359669
20 *11:20 4.22208e-05
21 *11:22 3.69432e-06
22 *11:23 4.53874e-05
23 *11:25 3.16656e-06

*RES
1 *11:25 *595:Q 1.4
2 *11:23 *11:25 0.0257138
3 *11:22 *676:B 1.4
4 *11:20 *11:23 0.342851
5 *11:18 *11:22 0.0299995
6 *11:17 *596:SI 1.4
7 *11:16 *11:20 1.4
8 *11:15 *11 2.92066
9 *11:15 *11:18 0.610703
10 *11:14 *11:17 0.0149996
11 *11:13 *11:16 2.73422
12 *11:13 *11:15 1.4
13 *11:12 *11:14 0.0385705
14 *11:11 *11:13 0.124283
15 *11:10 *11:12 1.4
16 *11:9 *11:11 1.4
17 *11:8 *11:10 2.48566
18 *11:7 *11:9 0.37285
19 *11:7 *11:8 1.4
20 *11:6 *11:7 1.98854
21 *11:5 *11:6 1.4
22 *11:4 *11:5 0.124283
23 *11:3 *11:4 1.4
24 *11:2 *11:3 0.00642846
25 *11:1 *11:2 0.0599989
26 *942:B0 *11:1 1.4
*END

*D_NET *12 0.0060109

*CONN
*I *595:SI I *C 49.097 6.593 *L 0.00276 *D SDFFRHQX1
*I *956:B0 I *C 37.6075 11.649 *L 0.00163 *D AOI222XL
*P *12 O *C 30.305 0 *L 0
*I *675:B I *C 21.371 7.947 *L 0.00184 *D MX2X1
*I *594:Q O *C 13.3815 6.037 *L 0 *D SDFFRHQX1

*CAP
1 *12:1 3.16656e-06
2 *12:2 6.86089e-06
3 *12:3 3.69432e-06
4 *12:4 0.000570191
5 *12:5 0.000570191
6 *12:6 0.000229576
7 *12:7 0.000229576
8 *12:8 8.14558e-05
9 *12:9 0.000439862
10 *12:10 4.09014e-05
11 *12:11 0.000358406
12 *12:12 4.38041e-05
13 *12:13 9.18303e-05
14 *12:14 2.90268e-06
15 *12:15 9.18303e-05
16 *12:17 4.88735e-05
17 *12:18 0.000543447
18 *12:19 0.000482109
19 *12:20 0.000494573
20 *12 0.000482109
21 *12:22 6.05429e-05
22 *12:23 0.000165094
23 *12:24 2.7982e-06
24 *12:25 0.000101753
25 *12:27 0.000422757
26 *12:28 0.000422757
27 *12:29 4.57888e-06
28 *12:30 9.9209e-06
29 *12:31 5.34202e-06

*RES
1 *12:31 *594:Q 1.4
2 *12:30 *12:31 0.0449994
3 *12:29 *12:30 0.0385709
4 *12:28 *12:29 1.4
5 *12:27 *12:28 3.3558
6 *12:25 *12:27 1.4
7 *12:24 *675:B 1.4
8 *12:23 *12:25 0.857131
9 *12:23 *12:24 0.0235711
10 *12:22 *12:23 0.509993
11 *12:20 *12:22 1.4
12 *12:19 *12 3.91493
13 *12:18 *12:20 3.85286
14 *12:18 *12:19 1.4
15 *12:17 *12:18 0.372848
16 *12:15 *12:17 1.4
17 *12:14 *956:B0 1.4
18 *12:13 *12:15 0.745701
19 *12:12 *12:14 0.023571
20 *12:11 *12:13 1.4
21 *12:10 *12:12 0.332137
22 *12:9 *12:11 2.73422
23 *12:9 *12:10 1.4
24 *12:8 *12:9 0.621413
25 *12:7 *12:8 1.4
26 *12:6 *12:7 1.86425
27 *12:5 *12:6 1.4
28 *12:4 *12:5 4.34989
29 *12:3 *12:4 1.4
30 *12:2 *12:3 0.0299995
31 *12:1 *12:2 0.0257138
32 *595:SI *12:1 1.4
*END

*D_NET *13 0.00348147

*CONN
*I *594:SI I *C 21.7915 6.617 *L 0.00276 *D SDFFRHQX1
*P *13 O *C 14.065 0 *L 0
*I *955:B0 I *C 15.9835 12.229 *L 0.00163 *D AOI222XL
*I *674:B I *C 12.652 8.87 *L 0.00184 *D MX2X1
*I *593:Q O *C 5.302 8.008 *L 0 *D SDFFRHQX1

*CAP
1 *13:1 5.34202e-06
2 *13:2 9.9209e-06
3 *13:3 4.57888e-06
4 *13:4 0.000219207
5 *13:5 0.000219207
6 *13:6 0.000132787
7 *13:7 0.000132787
8 *13:8 0.000109604
9 *13:9 0.00020355
10 *13:10 0.000162296
11 *13:11 9.3946e-05
12 *13:12 0.000162296
13 *13:13 5.90166e-05
14 *13:14 1.56577e-05
15 *13:15 0.000464756
16 *13:16 1.56577e-05
17 *13:17 7.82883e-05
18 *13 0.000405739
19 *13:19 4.83326e-06
20 *13:20 0.00046973
21 *13:21 1.04297e-05
22 *13:22 4.55344e-05
23 *13:23 0.000391442
24 *13:24 5.5964e-06
25 *13:25 4.7315e-05
26 *13:26 1.78067e-06
27 *13:28 1.78067e-06
28 *13:29 5.08764e-06
29 *13:31 3.30697e-06

*RES
1 *13:31 *593:Q 1.4
2 *13:29 *13:31 0.0278567
3 *13:28 *674:B 1.4
4 *13:26 *13:29 0.0149998
5 *13:25 *13:28 0.0149998
6 *13:24 *955:B0 1.4
7 *13:23 *13:26 1.4
8 *13:22 *13:25 0.383566
9 *13:21 *13:24 0.0471422
10 *13:20 *13:23 3.10722
11 *13:20 *13:22 1.4
12 *13:19 *13:21 0.0407137
13 *13:17 *13:20 0.621444
14 *13:16 *13:19 1.4
15 *13:15 *13 3.41781
16 *13:15 *13:17 1.4
17 *13:14 *13:16 0.124289
18 *13:13 *13:15 0.497136
19 *13:12 *13:14 1.4
20 *13:11 *13:13 1.4
21 *13:10 *13:12 1.36712
22 *13:9 *13:11 0.745733
23 *13:9 *13:10 1.4
24 *13:8 *13:9 0.870021
25 *13:7 *13:8 1.4
26 *13:6 *13:7 1.11856
27 *13:5 *13:6 1.4
28 *13:4 *13:5 1.74004
29 *13:3 *13:4 1.4
30 *13:2 *13:3 0.0385709
31 *13:1 *13:2 0.0449994
32 *594:SI *13:1 1.4
*END

*D_NET *14 0.0027019

*CONN
*I *593:SI I *C 13.712 8.588 *L 0.00276 *D SDFFRHQX1
*I *953:B0 I *C 13.7935 18.138 *L 0.00163 *D AOI222XL
*I *673:B I *C 10.1645 16.775 *L 0.00184 *D MX2X1
*I *592:Q O *C 3.355 17.1835 *L 0 *D SDFFRHQX1
*P *14 O *C 0 15.225 *L 0

*CAP
1 *14:1 3.30697e-06
2 *14:2 3.30697e-06
3 *14:4 0.00042609
4 *14:5 0.00042609
5 *14:6 0.000187892
6 *14:7 5.97798e-05
7 *14:8 0.000563676
8 *14:9 6.07973e-05
9 *14:10 9.66651e-06
10 *14:11 0.000375784
11 *14:12 1.01753e-06
12 *14:13 1.62804e-05
13 *14:14 9.97177e-05
14 *14:16 6.61393e-06
15 *14:17 1.22103e-05
16 *14:18 8.85249e-05
17 *14:20 1.01753e-06
18 *14:21 0.000180063
19 *14 0.000180063

*RES
1 *14:21 *14 1.42932
2 *14:20 *592:Q 1.4
3 *14:18 *14:21 1.4
4 *14:17 *14:20 0.00857131
5 *14:16 *673:B 1.4
6 *14:14 *14:18 0.745704
7 *14:14 *14:17 0.0942844
8 *14:13 *14:16 0.0557135
9 *14:12 *953:B0 1.4
10 *14:11 *14:14 1.4
11 *14:10 *14:13 0.0814274
12 *14:9 *14:12 0.00857131
13 *14:8 *14:11 2.98293
14 *14:8 *14:10 1.4
15 *14:7 *14:9 0.503564
16 *14:6 *14:8 1.49147
17 *14:6 *14:7 1.4
18 *14:5 *14:6 1.4
19 *14:4 *14:5 3.58923
20 *14:3 *14:4 1.4
21 *14:2 *14:3 1.4
22 *14:1 *14:2 0.0278567
23 *593:SI *14:1 1.4
*END

*D_NET *15 0.00419754

*CONN
*I *592:SI I *C 11.765 17.7635 *L 0.00276 *D SDFFRHQX1
*I *954:B0 I *C 15.7225 33.7345 *L 0.00163 *D AOI222XL
*I *672:B I *C 12.1125 34.33 *L 0.00184 *D MX2X1
*I *591:Q O *C 5.111 35.534 *L 0 *D SDFFRHQX1
*P *15 O *C 0 30.305 *L 0

*CAP
1 *15:1 1.01753e-06
2 *15:2 4.57888e-06
3 *15:3 3.56135e-06
4 *15:4 1.56577e-05
5 *15:5 1.56577e-05
6 *15:6 0.000819705
7 *15:7 0.000819705
8 *15:8 1.481e-05
9 *15:9 0.00019253
10 *15:10 9.03874e-05
11 *15:11 0.00017772
12 *15:12 9.03874e-05
13 *15:13 2.59734e-06
14 *15:14 1.481e-05
15 *15:15 6.75308e-06
16 *15:16 0.000370251
17 *15:17 4.15574e-06
18 *15:18 6.20764e-05
19 *15:19 0.000459111
20 *15:21 6.62322e-05
21 *15:22 5.19468e-07
22 *15:23 0.00010367
23 *15:24 4.15574e-06
24 *15:25 2.33761e-06
25 *15:26 0.000271162
26 *15:28 1.81814e-06
27 *15:29 0.000271162
28 *15:31 0.000155505
29 *15 0.000155505

*RES
1 *15:31 *15 1.30497
2 *15:29 *15:31 1.4
3 *15:28 *591:Q 1.4
4 *15:26 *15:29 2.23709
5 *15:25 *15:28 0.0149996
6 *15:24 *672:B 1.4
7 *15:23 *15:26 1.4
8 *15:22 *15:25 0.00428561
9 *15:21 *15:24 0.0342849
10 *15:19 *15:23 0.869982
11 *15:19 *15:22 1.4
12 *15:18 *15:21 0.51213
13 *15:17 *954:B0 1.4
14 *15:16 *15:19 2.9828
15 *15:16 *15:18 1.4
16 *15:15 *15:17 0.0342849
17 *15:14 *15:16 0.124283
18 *15:13 *15:15 0.021428
19 *15:12 *15:14 1.4
20 *15:11 *15:13 1.4
21 *15:10 *15:12 0.745696
22 *15:9 *15:11 1.4914
23 *15:9 *15:10 1.4
24 *15:8 *15:9 0.124283
25 *15:7 *15:8 1.4
26 *15:6 *15:7 6.83558
27 *15:5 *15:6 1.4
28 *15:4 *15:5 0.124289
29 *15:3 *15:4 1.4
30 *15:2 *15:3 0.0299996
31 *15:1 *15:2 0.00857131
32 *592:SI *15:1 1.4
*END

*D_NET *16 0.00283664

*CONN
*I *952:B0 I *C 16.949 41.329 *L 0.00163 *D AOI222XL
*I *591:SI I *C 13.521 36.114 *L 0.00276 *D SDFFRHQX1
*I *671:B I *C 12.7695 42.2935 *L 0.00184 *D MX2X1
*I *590:Q O *C 5.365 43.6495 *L 0 *D SDFFRHQX1
*P *16 O *C 0 40.745 *L 0

*CAP
1 *16:1 7.79202e-07
2 *16:2 1.03894e-06
3 *16:3 2.59734e-07
4 *16:4 0.00017772
5 *16:5 0.00017772
6 *16:6 3.01291e-05
7 *16:7 0.000270643
8 *16:8 2.962e-05
9 *16:9 0.000242332
10 *16:10 2.962e-05
11 *16:11 1.81814e-06
12 *16:12 8.05175e-05
13 *16:14 0.000127529
14 *16:15 3.9999e-05
15 *16:16 7.01282e-06
16 *16:17 0.000385061
17 *16:19 0.000385061
18 *16:20 0.000150905
19 *16:21 3.03889e-05
20 *16:22 0.000120517
21 *16:24 0.000273985
22 *16 0.000273985

*RES
1 *16:24 *16 2.29924
2 *16:22 *16:24 1.4
3 *16:21 *590:Q 1.4
4 *16:20 *16:22 0.994261
5 *16:20 *16:21 0.250708
6 *16:19 *16:20 1.4
7 *16:17 *16:19 3.23136
8 *16:16 *671:B 1.4
9 *16:15 *16:17 1.4
10 *16:14 *16:16 0.0578557
11 *16:14 *16:15 0.329992
12 *16:12 *16:14 0.66427
13 *16:11 *591:SI 1.4
14 *16:10 *16:12 1.4
15 *16:9 *16:11 0.0149996
16 *16:8 *16:10 0.248566
17 *16:7 *16:9 1.98424
18 *16:7 *16:8 1.4
19 *16:6 *16:7 0.248565
20 *16:5 *16:6 1.4
21 *16:4 *16:5 1.4914
22 *16:3 *16:4 1.4
23 *16:2 *16:3 0.0021428
24 *16:1 *16:2 0.00642841
25 *952:B0 *16:1 1.4
*END

*D_NET *17 0.0034416

*CONN
*I *951:B0 I *C 17.0465 53.6045 *L 0.00163 *D AOI222XL
*I *590:SI I *C 13.775 44.2295 *L 0.00276 *D SDFFRHQX1
*I *670:B I *C 12.2905 54.5105 *L 0.00184 *D MX2X1
*I *589:Q O *C 4.633 55.996 *L 0 *D SDFFRHQX1
*P *17 O *C 0 52.055 *L 0

*CAP
1 *17:1 4.28277e-06
2 *17:2 2.99794e-05
3 *17:3 2.56966e-05
4 *17:4 0.000171078
5 *17:5 0.000171078
6 *17:6 3.10501e-05
7 *17:7 0.000514929
8 *17:8 7.77625e-05
9 *17:9 0.000483879
10 *17:10 0.00049768
11 *17:12 5.38023e-05
12 *17:13 0.00049768
13 *17:14 5.5676e-05
14 *17:15 0.000133301
15 *17:16 7.77625e-05
16 *17:17 1.87371e-06
17 *17:18 0.000140796
18 *17:19 7.73949e-05
19 *17:21 7.49484e-06
20 *17:22 7.73949e-05
21 *17:24 0.000155505
22 *17 0.000155505

*RES
1 *17:24 *17 1.30497
2 *17:22 *17:24 1.4
3 *17:21 *589:Q 1.4
4 *17:19 *17:22 0.621418
5 *17:18 *17:21 0.0599991
6 *17:17 *670:B 1.4
7 *17:16 *17:19 1.4
8 *17:15 *17:18 1.06713
9 *17:14 *17:17 0.0149998
10 *17:13 *17:16 0.621415
11 *17:13 *17:15 1.4
12 *17:12 *17:14 0.430708
13 *17:10 *17:13 3.35564
14 *17:10 *17:12 1.4
15 *17:9 *590:SI 1.4
16 *17:8 *17:10 0.621415
17 *17:7 *17:9 3.97491
18 *17:7 *17:8 1.4
19 *17:6 *17:7 0.248568
20 *17:5 *17:6 1.4
21 *17:4 *17:5 1.36711
22 *17:3 *17:4 1.4
23 *17:2 *17:3 0.205711
24 *17:1 *17:2 0.0342852
25 *951:B0 *17:1 1.4
*END

*D_NET *18 0.00304815

*CONN
*I *950:B0 I *C 16.316 62.1205 *L 0.00163 *D AOI222XL
*I *589:SI I *C 13.043 56.576 *L 0.00276 *D SDFFRHQX1
*I *669:B I *C 11.3535 63.4895 *L 0.00184 *D MX2X1
*I *588:Q O *C 3.826 65.081 *L 0 *D SDFFRHQX1
*P *18 O *C 0 61.915 *L 0

*CAP
1 *18:1 3.74742e-06
2 *18:2 8.29786e-06
3 *18:3 4.55044e-06
4 *18:4 0.00018663
5 *18:5 0.000217735
6 *18:6 0.0003014
7 *18:7 3.1105e-05
8 *18:8 0.000308895
9 *18:9 0.000108675
10 *18:10 7.49484e-06
11 *18:11 0.000108675
12 *18:13 4.66575e-05
13 *18:14 0.000451023
14 *18:15 3.98833e-05
15 *18:16 0.000404365
16 *18:17 4.52367e-05
17 *18:18 0.000169437
18 *18:19 5.35346e-06
19 *18:20 5.00548e-05
20 *18:21 0.0001242
21 *18:23 4.81811e-06
22 *18:24 0.000209959
23 *18 0.000209959

*RES
1 *18:24 *18 1.67782
2 *18:23 *588:Q 1.4
3 *18:21 *18:24 1.4
4 *18:20 *18:23 0.0385708
5 *18:19 *669:B 1.4
6 *18:18 *18:21 0.99427
7 *18:18 *18:20 0.362137
8 *18:17 *18:19 0.0428565
9 *18:16 *18:18 1.4
10 *18:15 *18:17 0.319281
11 *18:14 *18:16 3.23136
12 *18:14 *18:15 1.4
13 *18:13 *18:14 0.372849
14 *18:11 *18:13 1.4
15 *18:10 *589:SI 1.4
16 *18:9 *18:11 0.869986
17 *18:8 *18:10 0.0599991
18 *18:7 *18:9 1.4
19 *18:6 *18:8 2.41282
20 *18:5 *18:7 0.248566
21 *18:5 *18:6 1.4
22 *18:4 *18:5 1.4914
23 *18:3 *18:4 1.4
24 *18:2 *18:3 0.036428
25 *18:1 *18:2 0.0299995
26 *950:B0 *18:1 1.4
*END

*D_NET *19 0.00410512

*CONN
*I *949:B0 I *C 13.7925 72.6015 *L 0.00163 *D AOI222XL
*I *588:SI I *C 12.236 65.661 *L 0.00276 *D SDFFRHQX1
*I *652:B I *C 9.283 81.173 *L 0.00184 *D MX2X1
*I *587:Q O *C 2.755 83.5705 *L 0 *D SDFFRHQX1
*P *19 O *C 0 75.835 *L 0

*CAP
1 *19:1 1.07069e-06
2 *19:2 3.47975e-06
3 *19:3 2.40906e-06
4 *19:4 7.77625e-05
5 *19:5 7.77625e-05
6 *19:6 0.000389464
7 *19:7 1.5525e-05
8 *19:8 0.000378757
9 *19:9 0.000155525
10 *19:10 4.81811e-06
11 *19:11 0.000155525
12 *19:13 0.000438548
13 *19:14 0.000470131
14 *19:15 2.42135e-05
15 *19:16 7.36934e-06
16 *19:17 0.000322624
17 *19:19 0.000337987
18 *19:20 0.000106855
19 *19:21 1.5363e-05
20 *19:22 0.000106855
21 *19:23 0.000276461
22 *19:24 3.07261e-05
23 *19:25 0.000276461
24 *19:26 3.07261e-05
25 *19:27 0.000155525
26 *19:28 5.00062e-06
27 *19:29 0.000155525
28 *19:30 5.00062e-06
29 *19:31 3.10501e-05
30 *19:33 3.10501e-05
31 *19:34 7.77625e-06
32 *19 7.77625e-06

*RES
1 *19:34 *19 0.0621415
2 *19:33 *19:34 1.4
3 *19:31 *19:33 0.248568
4 *19:30 *587:Q 1.4
5 *19:29 *19:31 1.4
6 *19:28 *19:30 0.0407151
7 *19:27 *19:29 1.24283
8 *19:26 *19:28 1.4
9 *19:25 *19:27 1.4
10 *19:24 *19:26 0.248566
11 *19:23 *19:25 2.23716
12 *19:22 *19:24 1.4
13 *19:21 *19:23 1.4
14 *19:20 *19:22 0.870018
15 *19:19 *19:21 0.124283
16 *19:19 *19:20 1.4
17 *19:17 *19:19 2.60995
18 *19:16 *652:B 1.4
19 *19:15 *19:17 1.4
20 *19:14 *19:16 0.0600013
21 *19:14 *19:15 0.197147
22 *19:13 *19:14 3.53142
23 *19:11 *19:13 1.4
24 *19:10 *588:SI 1.4
25 *19:9 *19:11 1.24283
26 *19:8 *19:10 0.0385708
27 *19:7 *19:9 1.4
28 *19:6 *19:8 2.99352
29 *19:6 *19:7 0.124284
30 *19:5 *19:6 1.4
31 *19:4 *19:5 0.621415
32 *19:3 *19:4 1.4
33 *19:2 *19:3 0.0192854
34 *19:1 *19:2 0.00857129
35 *949:B0 *19:1 1.4
*END

*D_NET *20 0.00288019

*CONN
*I *948:B0 I *C 12.906 87.6875 *L 0.00163 *D AOI222XL
*I *667:B I *C 9.7685 91.4475 *L 0.00184 *D MX2X1
*I *587:SI I *C 11.165 84.1505 *L 0.00276 *D SDFFRHQX1
*I *586:Q O *C 4.354 93.067 *L 0 *D SDFFRHQX1
*P *20 O *C 0 89.175 *L 0

*CAP
1 *20:1 1.84233e-06
2 *20:2 1.84233e-06
3 *20:3 4.60891e-05
4 *20:4 4.60891e-05
5 *20:5 3.05301e-05
6 *20:6 0.000183181
7 *20:7 0.000122904
8 *20:8 0.000152651
9 *20:9 0.000122904
10 *20:10 4.60891e-05
11 *20:11 0.000226607
12 *20:12 4.60891e-05
13 *20:13 0.000308196
14 *20:14 5.00062e-06
15 *20:15 7.8694e-05
16 *20:16 2.8951e-06
17 *20:17 5.00062e-06
18 *20:18 0.000276535
19 *20:21 0.00035335
20 *20:22 6.31658e-06
21 *20:23 7.68152e-05
22 *20:24 1.36859e-05
23 *20:25 0.000198446
24 *20:26 7.36934e-06
25 *20:27 0.000198446
26 *20:29 0.000161312
27 *20 0.000161312

*RES
1 *20:29 *20 1.30497
2 *20:27 *20:29 1.4
3 *20:26 *586:Q 1.4
4 *20:25 *20:27 1.61575
5 *20:24 *20:26 0.0600013
6 *20:23 *20:25 1.4
7 *20:22 *20:24 0.0514297
8 *20:21 *20:23 0.621415
9 *20:21 *20:22 1.4
10 *20:18 *20:21 2.2371
11 *20:17 *587:SI 1.4
12 *20:16 *667:B 1.4
13 *20:15 *20:18 1.4
14 *20:14 *20:17 0.0407151
15 *20:13 *20:16 0.0235719
16 *20:13 *20:15 0.640728
17 *20:12 *20:14 1.4
18 *20:11 *20:13 1.84504
19 *20:10 *20:12 0.372849
20 *20:9 *20:11 1.4
21 *20:8 *20:10 1.4
22 *20:7 *20:9 0.994265
23 *20:6 *20:8 1.24288
24 *20:6 *20:7 1.4
25 *20:5 *20:6 0.248577
26 *20:4 *20:5 1.4
27 *20:3 *20:4 0.372849
28 *20:2 *20:3 1.4
29 *20:1 *20:2 0.0150003
30 *948:B0 *20:1 1.4
*END

*D_NET *21 0.00194199

*CONN
*I *947:B0 I *C 17.767 91.415 *L 0.00163 *D AOI222XL
*I *666:B I *C 17.2775 94.9255 *L 0.00184 *D MX2X1
*P *21 O *C 15.225 101.79 *L 0
*I *585:Q O *C 13.15 95.861 *L 0 *D SDFFRHQX1
*I *586:SI I *C 12.764 93.647 *L 0.00276 *D SDFFRHQX1

*CAP
1 *21:1 3.68467e-06
2 *21:2 7.89572e-06
3 *21:3 4.21105e-06
4 *21:4 1.5363e-05
5 *21:5 1.5363e-05
6 *21:6 0.000183181
7 *21:7 0.000183181
8 *21:8 1.5363e-05
9 *21:9 0.000122904
10 *21:10 2.63191e-06
11 *21:11 0.000107541
12 *21:12 3.94786e-06
13 *21:13 7.63253e-05
14 *21:14 1.31595e-06
15 *21:15 0.000358729
16 *21 0.000282404
17 *21:18 0.000107541
18 *21:19 0.000107541
19 *21:20 2.97405e-05
20 *21:21 3.28988e-05
21 *21:22 2.36872e-06
22 *21:23 7.89572e-07
23 *21:25 1.5363e-05
24 *21:26 1.5363e-05
25 *21:27 0.000115804
26 *21:28 0.000123173
27 *21:29 7.36934e-06

*RES
1 *21:29 *586:SI 1.4
2 *21:28 *21:29 0.0600013
3 *21:27 *21:28 0.942877
4 *21:26 *21:27 1.4
5 *21:25 *21:26 0.124283
6 *21:23 *21:25 1.4
7 *21:22 *585:Q 1.4
8 *21:21 *21:23 0.00642871
9 *21:21 *21:22 0.0192861
10 *21:20 *21:21 0.242148
11 *21:19 *21:20 1.4
12 *21:18 *21:19 0.869982
13 *21:15 *21:18 1.4
14 *21:15 *21 2.29933
15 *21:14 *666:B 1.4
16 *21:13 *21:15 0.621442
17 *21:12 *21:14 0.0107145
18 *21:11 *21:13 1.4
19 *21:10 *21:12 0.021429
20 *21:9 *21:11 0.869982
21 *21:9 *21:10 1.4
22 *21:8 *21:9 0.124283
23 *21:7 *21:8 1.4
24 *21:6 *21:7 1.49146
25 *21:5 *21:6 1.4
26 *21:4 *21:5 0.124283
27 *21:3 *21:4 1.4
28 *21:2 *21:3 0.0342864
29 *21:1 *21:2 0.0300006
30 *947:B0 *21:1 1.4
*END

*D_NET *22 0.00298573

*CONN
*I *665:B I *C 35.4405 93.909 *L 0.00184 *D MX2X1
*I *946:B0 I *C 34.632 90.0105 *L 0.00163 *D AOI222XL
*I *584:Q O *C 32.117 94.9295 *L 0 *D SDFFRHQX1
*P *22 O *C 30.885 101.79 *L 0
*I *585:SI I *C 21.56 96.441 *L 0.00276 *D SDFFRHQX1

*CAP
1 *22:1 4.39181e-06
2 *22:2 9.30031e-06
3 *22:3 4.9085e-06
4 *22:4 3.29238e-05
5 *22:5 3.29238e-05
6 *22:6 1.49838e-05
7 *22:7 0.00019479
8 *22:8 0.000115233
9 *22:9 0.000179806
10 *22:10 0.000115233
11 *22:11 1.64619e-05
12 *22:12 0.000134854
13 *22:13 1.64619e-05
14 *22:14 0.000134854
15 *22:15 1.80839e-06
16 *22:16 4.93857e-05
17 *22:17 3.1001e-06
18 *22:18 0.000115233
19 *22:19 1.29171e-06
20 *22:20 6.22604e-05
21 *22:21 6.58476e-05
22 *22:23 6.58772e-05
23 *22:24 1.49838e-05
24 *22:25 3.61679e-06
25 *22:26 0.000292185
26 *22 0.000277201
27 *22:29 0.000509748
28 *22:30 0.000509748
29 *22:31 7.89572e-07
30 *22:32 3.15829e-06
31 *22:33 2.36872e-06

*RES
1 *22:33 *585:SI 1.4
2 *22:32 *22:33 0.0192861
3 *22:31 *22:32 0.00642871
4 *22:30 *22:31 1.4
5 *22:29 *22:30 3.97715
6 *22:26 *22:29 1.4
7 *22:26 *22 2.29934
8 *22:25 *584:Q 1.4
9 *22:24 *22:26 0.124289
10 *22:23 *22:25 0.0300007
11 *22:21 *22:24 1.4
12 *22:20 *22:23 0.516441
13 *22:19 *946:B0 1.4
14 *22:18 *22:21 0.497155
15 *22:18 *22:20 1.4
16 *22:17 *22:19 0.0107145
17 *22:16 *22:18 0.372866
18 *22:15 *22:17 0.0150004
19 *22:14 *22:16 1.4
20 *22:13 *22:15 1.4
21 *22:12 *22:14 1.1186
22 *22:11 *22:13 0.124289
23 *22:10 *22:12 1.4
24 *22:9 *22:11 1.4
25 *22:8 *22:10 0.870021
26 *22:7 *22:9 1.49147
27 *22:7 *22:8 1.4
28 *22:6 *22:7 0.124289
29 *22:5 *22:6 1.4
30 *22:4 *22:5 0.248578
31 *22:3 *22:4 1.4
32 *22:2 *22:3 0.0407153
33 *22:1 *22:2 0.0364295
34 *665:B *22:1 1.4
*END

*D_NET *23 0.00206007

*CONN
*I *945:B0 I *C 42.6965 87.932 *L 0.00163 *D AOI222XL
*P *23 O *C 41.905 101.79 *L 0
*I *664:B I *C 43.736 92.716 *L 0.00184 *D MX2X1
*I *584:SI I *C 40.527 95.5095 *L 0.00276 *D SDFFRHQX1
*I *583:Q O *C 40.143 94.2135 *L 0 *D SDFFRHQX1

*CAP
1 *23:1 4.13347e-06
2 *23:2 8.52528e-06
3 *23:3 4.39181e-06
4 *23:4 3.29238e-05
5 *23:5 3.29238e-05
6 *23:6 0.000239741
7 *23:7 0.000359612
8 *23:8 0.000119871
9 *23:9 1.64619e-05
10 *23:10 8.23094e-05
11 *23:11 1.64619e-05
12 *23:12 0.000164619
13 *23:13 3.1001e-06
14 *23:14 0.00035212
15 *23:15 9.87713e-05
16 *23:16 7.75026e-06
17 *23 0.00035212
18 *23:18 2.76426e-05
19 *23:19 1.64619e-05
20 *23:20 4.65015e-06
21 *23:21 3.12594e-05
22 *23:22 3.9268e-05
23 *23:24 3.61679e-06
24 *23:25 4.03013e-05
25 *23:27 1.03337e-06

*RES
1 *23:27 *583:Q 1.4
2 *23:25 *23:27 0.00857164
3 *23:24 *584:SI 1.4
4 *23:22 *23:25 0.325722
5 *23:21 *23:24 0.0300007
6 *23:20 *664:B 1.4
7 *23:19 *23:22 1.4
8 *23:18 *23:21 0.229291
9 *23:16 *23:20 0.0385724
10 *23:15 *23:19 0.124289
11 *23:15 *23:18 1.4
12 *23:14 *23 2.92079
13 *23:13 *23:16 0.0257149
14 *23:12 *23:15 0.621444
15 *23:12 *23:14 1.4
16 *23:11 *23:13 1.4
17 *23:10 *23:12 0.621444
18 *23:9 *23:11 0.124289
19 *23:8 *23:10 1.4
20 *23:7 *23:9 1.4
21 *23:7 *23:8 0.99431
22 *23:6 *23:7 1.98862
23 *23:5 *23:6 1.4
24 *23:4 *23:5 0.248578
25 *23:3 *23:4 1.4
26 *23:2 *23:3 0.0364295
27 *23:1 *23:2 0.0342866
28 *945:B0 *23:1 1.4
*END

*D_NET *24 0.00217262

*CONN
*I *663:B I *C 53.337 92.9255 *L 0.00184 *D MX2X1
*I *944:B0 I *C 51.2165 87.8805 *L 0.00163 *D AOI222XL
*I *582:Q O *C 50.443 94.5015 *L 0 *D SDFFRHQX1
*I *583:SI I *C 48.553 94.7935 *L 0.00276 *D SDFFRHQX1
*P *24 O *C 50.895 101.79 *L 0

*CAP
1 *24:1 6.20967e-06
2 *24:2 7.24462e-06
3 *24:3 1.03495e-06
4 *24:4 9.84468e-05
5 *24:5 0.000114909
6 *24:6 7.49191e-05
7 *24:7 1.64619e-05
8 *24:8 7.49191e-05
9 *24:9 0.0002617
10 *24:10 6.58476e-05
11 *24:11 0.00026325
12 *24:12 6.58476e-05
13 *24:13 1.55005e-06
14 *24:14 5.42518e-06
15 *24:16 2.17007e-05
16 *24:17 6.71689e-06
17 *24:18 9.55865e-06
18 *24:20 0.000148157
19 *24:21 4.93857e-05
20 *24:22 9.87713e-05
21 *24:23 0.000359612
22 *24:24 5.68352e-06
23 *24:25 0.000359612
24 *24:26 6.71689e-06
25 *24:27 1.64619e-05
26 *24:28 1.03337e-06
27 *24:29 1.64619e-05
28 *24:31 7.49191e-06
29 *24 7.49191e-06

*RES
1 *24:31 *24 0.0621444
2 *24:29 *24:31 1.4
3 *24:28 *583:SI 1.4
4 *24:27 *24:29 0.124289
5 *24:26 *24:28 0.00857164
6 *24:25 *24:27 1.4
7 *24:24 *24:26 0.047144
8 *24:23 *24:25 2.98293
9 *24:22 *24:24 1.4
10 *24:21 *24:23 1.4
11 *24:20 *24:22 0.745732
12 *24:20 *24:21 0.372866
13 *24:18 *24:20 1.4
14 *24:17 *582:Q 1.4
15 *24:16 *24:18 0.0792877
16 *24:16 *24:17 0.0557157
17 *24:14 *24:16 0.0450011
18 *24:13 *944:B0 1.4
19 *24:12 *24:14 1.4
20 *24:11 *24:13 0.0128575
21 *24:10 *24:12 0.497155
22 *24:9 *24:11 2.17077
23 *24:8 *24:10 1.4
24 *24:7 *24:9 1.4
25 *24:6 *24:8 0.621444
26 *24:5 *24:7 0.124289
27 *24:5 *24:6 1.4
28 *24:4 *24:5 0.745712
29 *24:3 *24:4 1.4
30 *24:2 *24:3 0.00857128
31 *24:1 *24:2 0.0514277
32 *663:B *24:1 1.4
*END

*D_NET *25 0.0024357

*CONN
*I *943:B0 I *C 64.0855 87.5145 *L 0.00163 *D AOI222XL
*I *662:B I *C 64.6145 92.9495 *L 0.00184 *D MX2X1
*I *581:Q O *C 61.038 94.577 *L 0 *D SDFFRHQX1
*I *582:SI I *C 58.853 95.0815 *L 0.00276 *D SDFFRHQX1
*P *25 O *C 62.205 101.79 *L 0

*CAP
1 *25:1 7.24462e-06
2 *25:2 1.13844e-05
3 *25:3 4.13978e-06
4 *25:4 3.27383e-05
5 *25:5 3.27383e-05
6 *25:6 0.000285128
7 *25:7 0.000285386
8 *25:8 4.91599e-06
9 *25:9 0.000180061
10 *25:10 4.65726e-06
11 *25:11 0.000180061
12 *25:13 9.00403e-05
13 *25:14 9.00403e-05
14 *25:15 1.63692e-05
15 *25:16 0.000147323
16 *25:17 0.000365853
17 *25:18 0.000130953
18 *25:19 0.000360161
19 *25:20 5.95094e-06
20 *25:21 2.04402e-05
21 *25:22 6.54767e-05
22 *25:23 2.58736e-07
23 *25:24 2.71673e-05
24 *25:25 6.54767e-05
25 *25:27 6.72715e-06
26 *25:28 7.50336e-06
27 *25 7.50336e-06

*RES
1 *25:28 *25 0.0621418
2 *25:27 *582:SI 1.4
3 *25:25 *25:28 1.4
4 *25:24 *25:27 0.0557133
5 *25:23 *581:Q 1.4
6 *25:22 *25:25 0.497132
7 *25:21 *25:24 0.169283
8 *25:20 *25:23 0.00214282
9 *25:19 *25:22 1.4
10 *25:18 *25:21 1.4
11 *25:17 *25:20 0.047142
12 *25:17 *25:19 2.98281
13 *25:16 *25:18 0.994264
14 *25:16 *25:17 1.4
15 *25:15 *25:16 0.124283
16 *25:14 *25:15 1.4
17 *25:13 *25:14 0.745701
18 *25:11 *25:13 1.4
19 *25:10 *662:B 1.4
20 *25:9 *25:11 1.36711
21 *25:8 *25:10 0.0385708
22 *25:7 *25:9 1.4
23 *25:7 *25:8 0.00214282
24 *25:6 *25:7 2.36139
25 *25:5 *25:6 1.4
26 *25:4 *25:5 0.248566
27 *25:3 *25:4 1.4
28 *25:2 *25:3 0.0342851
29 *25:1 *25:2 0.059999
30 *943:B0 *25:1 1.4
*END

*D_NET *26 0.00188035

*CONN
*I *661:B I *C 71.4795 93.652 *L 0.00184 *D MX2X1
*I *957:B0 I *C 70.286 88.5455 *L 0.00163 *D AOI222XL
*I *580:Q O *C 68.101 95.0895 *L 0 *D SDFFRHQX1
*I *581:SI I *C 69.448 95.157 *L 0.00276 *D SDFFRHQX1
*P *26 O *C 69.745 101.79 *L 0

*CAP
1 *26:1 2.58736e-07
2 *26:2 6.72715e-06
3 *26:3 6.46841e-06
4 *26:4 6.54767e-05
5 *26:5 0.000130953
6 *26:6 0.000257701
7 *26:7 6.54767e-05
8 *26:8 0.000259771
9 *26:9 7.50336e-05
10 *26:10 2.06989e-06
11 *26:11 9.00403e-05
12 *26:13 1.50067e-05
13 *26:14 6.54767e-05
14 *26:15 1.63692e-05
15 *26:16 6.54767e-05
16 *26:17 1.63692e-05
17 *26:18 5.95094e-06
18 *26:19 0.00033584
19 *26:20 1.08669e-05
20 *26:21 0.000330148
21 *26:22 5.95094e-06
22 *26:23 4.91599e-06
23 *26:24 1.63692e-05
24 *26:25 2.58736e-07
25 *26:27 1.63692e-05
26 *26:29 7.50336e-06
27 *26 7.50336e-06

*RES
1 *26:29 *26 0.0621418
2 *26:27 *26:29 1.4
3 *26:25 *581:SI 1.4
4 *26:24 *26:27 0.124283
5 *26:23 *580:Q 1.4
6 *26:22 *26:25 0.00214282
7 *26:21 *26:24 1.4
8 *26:20 *26:23 0.0407136
9 *26:19 *26:22 0.047142
10 *26:19 *26:21 2.73424
11 *26:18 *26:20 0.0492849
12 *26:17 *26:19 1.4
13 *26:16 *26:18 1.4
14 *26:15 *26:17 0.124283
15 *26:14 *26:16 0.497132
16 *26:13 *26:15 1.4
17 *26:11 *26:14 1.4
18 *26:11 *26:13 0.124284
19 *26:10 *957:B0 1.4
20 *26:9 *26:11 0.621418
21 *26:8 *26:10 0.0171426
22 *26:7 *26:9 1.4
23 *26:6 *26:8 2.13425
24 *26:5 *26:7 0.497132
25 *26:5 *26:6 1.4
26 *26:4 *26:5 0.497132
27 *26:3 *26:4 1.4
28 *26:2 *26:3 0.0535705
29 *26:1 *26:2 0.00214282
30 *661:B *26:1 1.4
*END

*D_NET *27 0.00275172

*CONN
*I *580:SI I *C 76.511 95.6695 *L 0.00276 *D SDFFRHQX1
*I *910:B0 I *C 80.805 90.861 *L 0.00163 *D AOI222XL
*P *27 O *C 83.375 101.79 *L 0
*I *579:Q O *C 86.936 95.7155 *L 0 *D SDFFRHQX1
*I *660:B I *C 89.025 94.712 *L 0.00184 *D MX2X1

*CAP
1 *27:1 4.91599e-06
2 *27:2 1.08669e-05
3 *27:3 5.95094e-06
4 *27:4 0.00024326
5 *27:5 0.00024326
6 *27:6 1.5423e-05
7 *27:7 0.000249693
8 *27:8 0.000144911
9 *27:9 0.000236397
10 *27:10 0.000144911
11 *27:11 2.12731e-06
12 *27:12 3.0846e-05
13 *27:14 0.000347017
14 *27:15 0.000193214
15 *27 0.000316171
16 *27:17 0.000193214
17 *27:18 6.91376e-06
18 *27:19 1.96776e-05
19 *27:20 4.25462e-06
20 *27:21 8.50924e-06
21 *27:23 0.000112708
22 *27:24 0.000112708
23 *27:25 4.49394e-05
24 *27:26 5.2385e-05
25 *27:27 7.44558e-06

*RES
1 *27:27 *660:B 1.4
2 *27:26 *27:27 0.0600015
3 *27:25 *27:26 0.362152
4 *27:24 *27:25 1.4
5 *27:23 *27:24 0.869981
6 *27:21 *27:23 1.4
7 *27:20 *579:Q 1.4
8 *27:19 *27:21 0.0685731
9 *27:19 *27:20 0.0342866
10 *27:18 *27:19 0.0557156
11 *27:17 *27:18 1.4
12 *27:15 *27:17 1.4914
13 *27:14 *27 2.54792
14 *27:14 *27:15 1.4
15 *27:12 *27:14 0.248577
16 *27:11 *910:B0 1.4
17 *27:10 *27:12 1.4
18 *27:9 *27:11 0.0171433
19 *27:8 *27:10 1.11855
20 *27:7 *27:9 1.8879
21 *27:7 *27:8 1.4
22 *27:6 *27:7 0.124289
23 *27:5 *27:6 1.4
24 *27:4 *27:5 1.86425
25 *27:3 *27:4 1.4
26 *27:2 *27:3 0.0492849
27 *27:1 *27:2 0.0407136
28 *580:SI *27:1 1.4
*END

*D_NET *28 0.00208549

*CONN
*I *579:SI I *C 95.346 96.2955 *L 0.00276 *D SDFFRHQX1
*P *28 O *C 97.005 101.79 *L 0
*I *924:B0 I *C 95.611 91.149 *L 0.00163 *D AOI222XL
*I *578:Q O *C 97.145 93.3665 *L 0 *D SDFFRHQX1
*I *659:B I *C 100.048 93.7365 *L 0.00184 *D MX2X1

*CAP
1 *28:1 4.25462e-06
2 *28:2 1.11684e-05
3 *28:3 6.91376e-06
4 *28:4 1.61012e-05
5 *28:5 8.0506e-05
6 *28:6 8.0506e-05
7 *28:7 0.000280539
8 *28:8 1.61012e-05
9 *28:9 0.00015423
10 *28:10 0.000283464
11 *28:11 0.000285325
12 *28:12 0.00015423
13 *28:13 2.92505e-06
14 *28 0.000285325
15 *28:15 1.61012e-05
16 *28:17 0.000177113
17 *28:18 0.000161012
18 *28:19 8.50924e-06
19 *28:20 1.11684e-05
20 *28:21 1.59548e-05
21 *28:22 1.88799e-05
22 *28:23 7.44558e-06
23 *28:24 7.7115e-06

*RES
1 *28:24 *659:B 1.4
2 *28:23 *578:Q 1.4
3 *28:22 *28:24 0.0621444
4 *28:21 *28:23 0.0600015
5 *28:20 *28:22 0.0900022
6 *28:19 *28:21 0.0685731
7 *28:18 *28:20 1.4
8 *28:17 *28:19 1.4
9 *28:17 *28:18 1.24283
10 *28:15 *28:17 0.124283
11 *28:13 *924:B0 1.4
12 *28:12 *28:15 1.4
13 *28:11 *28 2.29934
14 *28:10 *28:13 0.023572
15 *28:9 *28:12 1.24289
16 *28:8 *28:11 1.4
17 *28:7 *28:10 2.26077
18 *28:6 *28:9 1.4
19 *28:6 *28:8 0.124283
20 *28:5 *28:7 1.4
21 *28:5 *28:6 0.497132
22 *28:4 *28:5 0.124283
23 *28:3 *28:4 1.4
24 *28:2 *28:3 0.0557156
25 *28:1 *28:2 0.0342866
26 *579:SI *28:1 1.4
*END

*D_NET *29 0.00217865

*CONN
*I *578:SI I *C 105.555 93.9465 *L 0.00276 *D SDFFRHQX1
*P *29 O *C 110.78 88.015 *L 0
*I *658:B I *C 102.749 86.682 *L 0.00184 *D MX2X1
*I *577:Q O *C 98.745 85.132 *L 0 *D SDFFRHQX1
*I *923:B0 I *C 98.5305 86.3025 *L 0.00163 *D AOI222XL

*CAP
1 *29:1 5.81547e-06
2 *29:2 0.000240096
3 *29:3 0.000246327
4 *29:4 0.000214465
5 *29:5 1.20463e-05
6 *29:6 0.000214465
7 *29:7 0.000130258
8 *29:8 1.20463e-05
9 *29:9 0.000355675
10 *29:10 1.20463e-05
11 *29:11 7.0999e-05
12 *29:12 0.000225417
13 *29:13 5.95736e-06
14 *29:14 7.3924e-05
15 *29:15 9.2538e-05
16 *29 5.95736e-06
17 *29:17 2.92505e-06
18 *29:18 0.000153432
19 *29:20 1.61012e-05
20 *29:21 6.08942e-05
21 *29:22 1.61012e-05
22 *29:24 1.59548e-06
23 *29:25 5.58419e-06
24 *29:26 3.9887e-06

*RES
1 *29:26 *923:B0 1.4
2 *29:25 *29:26 0.0321436
3 *29:24 *29:25 0.0128575
4 *29:22 *29:24 1.4
5 *29:21 *577:Q 1.4
6 *29:20 *29:22 0.124283
7 *29:18 *29:21 0.490726
8 *29:18 *29:20 1.4
9 *29:17 *658:B 1.4
10 *29:15 *29:18 0.745732
11 *29:14 *29:17 0.023572
12 *29:13 *29 0.0621429
13 *29:12 *29:15 1.4
14 *29:11 *29:14 0.572157
15 *29:10 *29:13 1.4
16 *29:9 *29:12 1.73996
17 *29:9 *29:11 1.4
18 *29:8 *29:10 0.124283
19 *29:7 *29:9 1.11856
20 *29:6 *29:8 1.4
21 *29:5 *29:7 1.4
22 *29:4 *29:6 2.23714
23 *29:3 *29:5 0.124283
24 *29:3 *29:4 1.4
25 *29:2 *29:3 2.41708
26 *29:1 *29:2 0.0599985
27 *578:SI *29:1 1.4
*END

*D_NET *30 0.00358287

*CONN
*I *577:SI I *C 107.155 85.712 *L 0.00276 *D SDFFRHQX1
*P *30 O *C 110.78 71.485 *L 0
*I *657:B I *C 101.13 67.344 *L 0.00184 *D MX2X1
*I *576:Q O *C 97.878 64.9535 *L 0 *D SDFFRHQX1
*I *922:B0 I *C 96.3065 67.62 *L 0.00163 *D AOI222XL

*CAP
1 *30:1 0.000599349
2 *30:2 0.000612307
3 *30:3 0.000151913
4 *30:4 1.29575e-05
5 *30:5 0.000151913
6 *30:6 0.000275462
7 *30:7 1.29575e-05
8 *30:8 0.000275462
9 *30:9 1.29575e-05
10 *30:10 0.000274366
11 *30:11 6.32971e-06
12 *30:12 0.000274366
13 *30 6.32971e-06
14 *30:14 1.47807e-05
15 *30:15 0.000177369
16 *30:16 5.67654e-05
17 *30:17 0.000162588
18 *30:18 6.01819e-05
19 *30:19 8.40969e-05
20 *30:20 3.41644e-06
21 *30:21 1.52426e-05
22 *30:22 6.91171e-05
23 *30:24 7.39036e-05
24 *30:25 2.62803e-07
25 *30:26 7.39036e-05
26 *30:28 5.5977e-05
27 *30:29 6.22843e-05
28 *30:30 6.30727e-06

*RES
1 *30:30 *922:B0 1.4
2 *30:29 *30:30 0.0514292
3 *30:28 *30:29 0.456435
4 *30:26 *30:28 1.4
5 *30:25 *576:Q 1.4
6 *30:24 *30:26 0.621416
7 *30:22 *30:25 0.00214289
8 *30:21 *30:24 1.4
9 *30:20 *657:B 1.4
10 *30:19 *30:22 0.561436
11 *30:19 *30:21 0.124287
12 *30:18 *30:20 0.0278575
13 *30:17 *30:19 1.4
14 *30:16 *30:18 0.462863
15 *30:15 *30:17 1.36712
16 *30:15 *30:16 1.4
17 *30:14 *30:15 0.124283
18 *30:12 *30:14 1.4
19 *30:11 *30 0.0621444
20 *30:10 *30:12 2.23717
21 *30:9 *30:11 1.4
22 *30:8 *30:10 1.4
23 *30:7 *30:9 0.124284
24 *30:6 *30:8 2.48572
25 *30:5 *30:7 1.4
26 *30:4 *30:6 1.4
27 *30:3 *30:5 1.49147
28 *30:2 *30:4 0.124284
29 *30:2 *30:3 1.4
30 *30:1 *30:2 5.97203
31 *577:SI *30:1 1.4
*END

*D_NET *31 0.00264043

*CONN
*I *576:SI I *C 106.288 65.5335 *L 0.00276 *D SDFFRHQX1
*P *31 O *C 110.78 60.175 *L 0
*I *656:B I *C 99.51 58.9465 *L 0.00184 *D MX2X1
*I *921:B0 I *C 94.461 60.0045 *L 0.00163 *D AOI222XL
*I *575:Q O *C 96.8185 56.3425 *L 0 *D SDFFRHQX1

*CAP
1 *31:1 2.23406e-07
2 *31:2 0.000239715
3 *31:3 0.000239491
4 *31:4 1.26594e-05
5 *31:5 0.000196221
6 *31 0.000183562
7 *31:7 3.88726e-05
8 *31:8 3.88726e-05
9 *31:9 0.000338828
10 *31:10 0.000471854
11 *31:11 1.89218e-05
12 *31:12 0.000133026
13 *31:13 2.44407e-05
14 *31:14 0.000182911
15 *31:15 5.51886e-06
16 *31:16 3.04851e-05
17 *31:17 0.000152426
18 *31:19 0.000133026
19 *31:20 1.47807e-05
20 *31:21 0.000133026
21 *31:22 1.47807e-05
22 *31:23 6.30727e-06
23 *31:24 3.15363e-06
24 *31:25 9.72371e-06
25 *31:26 8.67249e-06
26 *31:27 3.41644e-06
27 *31:28 5.51886e-06

*RES
1 *31:28 *575:Q 1.4
2 *31:27 *921:B0 1.4
3 *31:26 *31:28 0.0450006
4 *31:25 *31:27 0.0278575
5 *31:24 *31:26 0.0257146
6 *31:23 *31:25 0.0514292
7 *31:22 *31:24 1.4
8 *31:21 *31:23 1.4
9 *31:20 *31:22 0.124283
10 *31:19 *31:21 1.11855
11 *31:17 *31:20 1.4
12 *31:16 *31:19 1.4
13 *31:15 *656:B 1.4
14 *31:14 *31:17 1.24287
15 *31:14 *31:16 0.248575
16 *31:13 *31:15 0.0450006
17 *31:12 *31:14 1.4
18 *31:11 *31:13 0.154288
19 *31:10 *31:12 1.11855
20 *31:10 *31:11 1.4
21 *31:9 *31:10 2.98284
22 *31:8 *31:9 1.4
23 *31:7 *31:8 0.372852
24 *31:5 *31:7 1.4
25 *31:5 *31 1.80219
26 *31:4 *31:5 0.124289
27 *31:3 *31:4 1.4
28 *31:2 *31:3 2.29711
29 *31:1 *31:2 0.00214283
30 *576:SI *31:1 1.4
*END

*D_NET *32 0.00338045

*CONN
*I *575:SI I *C 105.229 56.9225 *L 0.00276 *D SDFFRHQX1
*P *32 O *C 110.78 47.415 *L 0
*I *655:B I *C 100.385 44.4275 *L 0.00184 *D MX2X1
*I *920:B0 I *C 95.55 47.1155 *L 0.00163 *D AOI222XL
*I *574:Q O *C 97.453 41.3155 *L 0 *D SDFFRHQX1

*CAP
1 *32:1 4.69152e-06
2 *32:2 0.000414658
3 *32:3 0.000422795
4 *32:4 0.000241206
5 *32:5 1.28289e-05
6 *32:6 0.000241206
7 *32:7 0.000261525
8 *32:8 3.01281e-05
9 *32 0.000261525
10 *32:10 0.00017012
11 *32:11 0.00026152
12 *32:12 0.000306475
13 *32:13 0.00026152
14 *32:14 5.1945e-06
15 *32:15 0.000161289
16 *32:16 5.1945e-07
17 *32:18 0.000153835
18 *32:19 7.79175e-07
19 *32:20 0.000153835
20 *32:21 2.59725e-07
21 *32:22 5.1945e-07
22 *32:24 7.2723e-06
23 *32:25 6.75285e-06

*RES
1 *32:25 *574:Q 1.4
2 *32:24 *32:25 0.0557129
3 *32:22 *32:24 0.00428561
4 *32:21 *920:B0 1.4
5 *32:20 *32:22 1.4
6 *32:19 *32:21 0.0021428
7 *32:18 *32:20 1.24288
8 *32:16 *32:19 0.00428561
9 *32:15 *32:18 1.4
10 *32:14 *655:B 1.4
11 *32:13 *32:16 1.4
12 *32:12 *32:15 1.33068
13 *32:12 *32:14 0.0428561
14 *32:11 *32:13 2.11289
15 *32:10 *32:12 1.15497
16 *32:10 *32:11 1.4
17 *32:8 *32:10 0.248565
18 *32:7 *32 2.42353
19 *32:6 *32:8 1.4
20 *32:5 *32:7 1.4
21 *32:4 *32:6 1.98859
22 *32:3 *32:5 0.124284
23 *32:3 *32:4 1.4
24 *32:2 *32:3 3.95138
25 *32:1 *32:2 0.0449994
26 *575:SI *32:1 1.4
*END

*D_NET *33 0.0026566

*CONN
*I *574:SI I *C 105.863 41.8955 *L 0.00276 *D SDFFRHQX1
*P *33 O *C 110.78 36.105 *L 0
*I *654:B I *C 100.589 34.2605 *L 0.00184 *D MX2X1
*I *573:Q O *C 97.367 32.768 *L 0 *D SDFFRHQX1
*I *919:B0 I *C 95.639 35.365 *L 0.00163 *D AOI222XL

*CAP
1 *33:1 5.75088e-06
2 *33:2 0.000249058
3 *33:3 0.000256136
4 *33:4 0.000214584
5 *33:5 1.28289e-05
6 *33:6 0.000214584
7 *33:7 0.000281441
8 *33:8 1.28289e-05
9 *33:9 0.000450659
10 *33:10 1.28289e-05
11 *33:11 9.58385e-05
12 *33:12 0.000169219
13 *33:13 6.70576e-06
14 *33:14 0.000101293
15 *33:15 4.51921e-05
16 *33 6.70576e-06
17 *33:17 5.45422e-06
18 *33:18 0.000173237
19 *33:20 9.2301e-05
20 *33:21 0.000131681
21 *33:22 9.2301e-05
22 *33:23 3.63615e-06
23 *33:24 6.75285e-06
24 *33:26 1.11682e-05
25 *33:27 4.41532e-06

*RES
1 *33:27 *919:B0 1.4
2 *33:26 *33:27 0.0364277
3 *33:24 *33:26 0.0557129
4 *33:23 *573:Q 1.4
5 *33:22 *33:24 1.4
6 *33:21 *33:23 0.0299993
7 *33:20 *33:22 0.745726
8 *33:18 *33:21 1.0564
9 *33:18 *33:20 1.4
10 *33:17 *654:B 1.4
11 *33:15 *33:18 0.372848
12 *33:14 *33:17 0.0449989
13 *33:13 *33 0.0621418
14 *33:12 *33:15 1.4
15 *33:11 *33:14 0.790695
16 *33:10 *33:13 1.4
17 *33:9 *33:12 1.36717
18 *33:9 *33:11 1.4
19 *33:8 *33:10 0.124284
20 *33:7 *33:9 2.36144
21 *33:6 *33:8 1.4
22 *33:5 *33:7 1.4
23 *33:4 *33:6 1.98854
24 *33:3 *33:5 0.124284
25 *33:3 *33:4 1.4
26 *33:2 *33:3 2.35712
27 *33:1 *33:2 0.0557137
28 *574:SI *33:1 1.4
*END

*D_NET *34 0.00474024

*CONN
*I *573:SI I *C 105.777 33.348 *L 0.00276 *D SDFFRHQX1
*P *34 O *C 110.78 34.075 *L 0
*I *918:B0 I *C 81.134 33.379 *L 0.00163 *D AOI222XL
*I *653:B I *C 75.7475 34.482 *L 0.00184 *D MX2X1
*I *572:Q O *C 67.741 35.3445 *L 0 *D SDFFRHQX1

*CAP
1 *34:1 3.09663e-06
2 *34:2 9.51108e-06
3 *34:3 6.41445e-06
4 *34:4 0.00152672
5 *34:5 0.000227996
6 *34:6 0.00145186
7 *34:7 3.84867e-05
8 *34:8 9.09037e-06
9 *34:9 0.000153134
10 *34:10 3.84867e-05
11 *34:11 1.3246e-05
12 *34:12 5.8366e-05
13 *34:13 6.70576e-06
14 *34:14 4.1556e-06
15 *34:15 5.8366e-05
16 *34 6.70576e-06
17 *34:18 0.000111849
18 *34:19 0.00050332
19 *34:20 5.78629e-06
20 *34:21 0.000391471
21 *34:22 5.78629e-06
22 *34:23 4.93092e-05
23 *34:25 4.93092e-05
24 *34:26 4.27682e-06
25 *34:28 4.27682e-06
26 *34:29 1.25789e-06
27 *34:31 1.25789e-06

*RES
1 *34:31 *572:Q 1.4
2 *34:29 *34:31 0.010714
3 *34:28 *653:B 1.4
4 *34:27 *34:29 1.4
5 *34:26 *34:28 0.0364277
6 *34:25 *34:27 1.4
7 *34:24 *34:26 1.4
8 *34:23 *34:25 0.41999
9 *34:22 *34:24 1.4
10 *34:21 *34:23 1.4
11 *34:20 *34:22 0.0492845
12 *34:19 *34:21 3.47991
13 *34:19 *34:20 1.4
14 *34:18 *34:19 0.994261
15 *34:15 *34:18 1.4
16 *34:14 *918:B0 1.4
17 *34:13 *34 0.0621418
18 *34:12 *34:15 0.497131
19 *34:11 *34:14 0.0342849
20 *34:10 *34:13 1.4
21 *34:9 *34:12 1.4
22 *34:8 *34:11 0.0749982
23 *34:7 *34:10 0.372853
24 *34:6 *34:9 1.24287
25 *34:6 *34:8 1.4
26 *34:5 *34:7 1.4
27 *34:4 *34:6 10.5644
28 *34:4 *34:5 2.11282
29 *34:3 *34:4 1.4
30 *34:2 *34:3 0.0621422
31 *34:1 *34:2 0.0299997
32 *573:SI *34:1 1.4
*END

*D_NET *35 0.094846

*CONN
*I *598:SE I *C 46.263 39.946 *L 0.00488 *D SDFFRHQX1
*I *630:SE I *C 47.7705 40.762 *L 0.00488 *D SDFFRHQX1
*I *566:SE I *C 47.7855 40.3815 *L 0.00488 *D SDFFRHQX1
*I *823:SE I *C 48.033 40.818 *L 0.00488 *D SDFFRHQX1
*I *789:SE I *C 48.241 40.4965 *L 0.00488 *D SDFFRHQX1
*I *855:SE I *C 47.8555 40.867 *L 0.00488 *D SDFFRHQX1
*I *822:SE I *C 49.161 34.882 *L 0.00488 *D SDFFRHQX1
*I *565:SE I *C 50.2905 33.8745 *L 0.00488 *D SDFFRHQX1
*I *854:SE I *C 49.229 34.7115 *L 0.00488 *D SDFFRHQX1
*I *629:SE I *C 50.4865 34.005 *L 0.00488 *D SDFFRHQX1
*I *788:SE I *C 50.201 33.536 *L 0.00488 *D SDFFRHQX1
*I *597:SE I *C 50.9945 26.1725 *L 0.00488 *D SDFFRHQX1
*I *853:SE I *C 49.704 22.214 *L 0.00488 *D SDFFRHQX1
*I *821:SE I *C 49.2535 24.143 *L 0.00488 *D SDFFRHQX1
*I *564:SE I *C 51.7615 18.4635 *L 0.00488 *D SDFFRHQX1
*I *787:SE I *C 50.7785 18.1015 *L 0.00488 *D SDFFRHQX1
*I *628:SE I *C 52.2565 15.0185 *L 0.00488 *D SDFFRHQX1
*I *852:SE I *C 47.07 14.432 *L 0.00488 *D SDFFRHQX1
*I *563:SE I *C 47.8585 11.2065 *L 0.00488 *D SDFFRHQX1
*I *786:SE I *C 45.7895 12.436 *L 0.00488 *D SDFFRHQX1
*I *595:SE I *C 49.097 6.303 *L 0.00488 *D SDFFRHQX1
*I *627:SE I *C 48.712 9.464 *L 0.00488 *D SDFFRHQX1
*I *820:SE I *C 46.179 16.815 *L 0.00488 *D SDFFRHQX1
*I *851:SE I *C 38.7025 13.987 *L 0.00488 *D SDFFRHQX1
*I *596:SE I *C 53.1785 7.4865 *L 0.00488 *D SDFFRHQX1
*I *819:SE I *C 35.689 16.4225 *L 0.00488 *D SDFFRHQX1
*I *785:SE I *C 26.4195 11.601 *L 0.00488 *D SDFFRHQX1
*I *562:SE I *C 25.668 11.003 *L 0.00488 *D SDFFRHQX1
*I *850:SE I *C 22.7185 16.4385 *L 0.00488 *D SDFFRHQX1
*I *784:SE I *C 20.324 14.7355 *L 0.00488 *D SDFFRHQX1
*I *626:SE I *C 22.427 8.923 *L 0.00488 *D SDFFRHQX1
*I *561:SE I *C 18.331 13.7405 *L 0.00488 *D SDFFRHQX1
*I *594:SE I *C 21.7915 6.327 *L 0.00488 *D SDFFRHQX1
*I *624:SE I *C 16.101 19.672 *L 0.00488 *D SDFFRHQX1
*I *818:SE I *C 24.8455 19.308 *L 0.00488 *D SDFFRHQX1
*I *625:SE I *C 16.15 11.0305 *L 0.00488 *D SDFFRHQX1
*I *593:SE I *C 13.712 8.298 *L 0.00488 *D SDFFRHQX1
*I *849:SE I *C 21.107 24.5805 *L 0.00488 *D SDFFRHQX1
*I *592:SE I *C 11.765 17.4735 *L 0.00488 *D SDFFRHQX1
*I *783:SE I *C 20.0275 25.8325 *L 0.00488 *D SDFFRHQX1
*I *560:SE I *C 19.331 26.4805 *L 0.00488 *D SDFFRHQX1
*I *817:SE I *C 23.528 28.191 *L 0.00488 *D SDFFRHQX1
*I *782:SE I *C 21.375 36.5 *L 0.00488 *D SDFFRHQX1
*I *623:SE I *C 18.842 35.997 *L 0.00488 *D SDFFRHQX1
*I *591:SE I *C 13.521 35.824 *L 0.00488 *D SDFFRHQX1
*I *559:SE I *C 21.976 36.9475 *L 0.00488 *D SDFFRHQX1
*I *848:SE I *C 22.406 36.3705 *L 0.00488 *D SDFFRHQX1
*I *816:SE I *C 24.5195 36.8985 *L 0.00488 *D SDFFRHQX1
*I *815:SE I *C 25.4505 43.474 *L 0.00488 *D SDFFRHQX1
*I *847:SE I *C 23.292 43.3535 *L 0.00488 *D SDFFRHQX1
*I *558:SE I *C 23.1725 44.0975 *L 0.00488 *D SDFFRHQX1
*I *846:SE I *C 23.5895 56.773 *L 0.00488 *D SDFFRHQX1
*I *780:SE I *C 21.8825 56.904 *L 0.00488 *D SDFFRHQX1
*I *781:SE I *C 21.97 43.877 *L 0.00488 *D SDFFRHQX1
*I *621:SE I *C 19.3155 56.5685 *L 0.00488 *D SDFFRHQX1
*I *622:SE I *C 19.8675 43.5825 *L 0.00488 *D SDFFRHQX1
*I *590:SE I *C 13.775 43.9395 *L 0.00488 *D SDFFRHQX1
*I *557:SE I *C 23.579 57.6425 *L 0.00488 *D SDFFRHQX1
*I *589:SE I *C 13.043 56.286 *L 0.00488 *D SDFFRHQX1
*I *813:SE I *C 26.1995 63.531 *L 0.00488 *D SDFFRHQX1
*I *814:SE I *C 26.218 57.455 *L 0.00488 *D SDFFRHQX1
*I *845:SE I *C 23.1495 63.596 *L 0.00488 *D SDFFRHQX1
*I *556:SE I *C 21.9375 64.475 *L 0.00488 *D SDFFRHQX1
*I *779:SE I *C 20.3285 64.8875 *L 0.00488 *D SDFFRHQX1
*I *812:SE I *C 25.3285 70.204 *L 0.00488 *D SDFFRHQX1
*I *844:SE I *C 21.7935 72.2355 *L 0.00488 *D SDFFRHQX1
*I *588:SE I *C 12.236 65.371 *L 0.00488 *D SDFFRHQX1
*I *620:SE I *C 17.1475 64.742 *L 0.00488 *D SDFFRHQX1
*I *555:SE I *C 17.337 77.573 *L 0.00488 *D SDFFRHQX1
*I *778:SE I *C 17.682 78.882 *L 0.00488 *D SDFFRHQX1
*I *843:SE I *C 22.1255 83.0995 *L 0.00488 *D SDFFRHQX1
*I *619:SE I *C 13.6205 83.578 *L 0.00488 *D SDFFRHQX1
*I *587:SE I *C 11.165 83.8605 *L 0.00488 *D SDFFRHQX1
*I *777:SE I *C 19.6135 86.907 *L 0.00488 *D SDFFRHQX1
*I *554:SE I *C 17.9 88.8155 *L 0.00488 *D SDFFRHQX1
*I *585:SE I *C 21.56 96.151 *L 0.00488 *D SDFFRHQX1
*I *617:SE I *C 21.9745 93.7795 *L 0.00488 *D SDFFRHQX1
*I *618:SE I *C 14.859 92.0385 *L 0.00488 *D SDFFRHQX1
*I *553:SE I *C 28.315 89.7045 *L 0.00488 *D SDFFRHQX1
*I *586:SE I *C 12.764 93.357 *L 0.00488 *D SDFFRHQX1
*I *842:SE I *C 28.4375 84.9965 *L 0.00488 *D SDFFRHQX1
*I *776:SE I *C 29.4655 87.74 *L 0.00488 *D SDFFRHQX1
*I *810:SE I *C 32.608 81.094 *L 0.00488 *D SDFFRHQX1
*I *811:SE I *C 26.1855 79.099 *L 0.00488 *D SDFFRHQX1
*I *841:SE I *C 41.625 82.715 *L 0.00488 *D SDFFRHQX1
*I *809:SE I *C 42.279 79.7995 *L 0.00488 *D SDFFRHQX1
*I *840:SE I *C 48.1105 81.0255 *L 0.00488 *D SDFFRHQX1
*I *775:SE I *C 41.8185 84.9055 *L 0.00488 *D SDFFRHQX1
*I *808:SE I *C 48.2355 78.9435 *L 0.00488 *D SDFFRHQX1
*I *774:SE I *C 48.548 83.231 *L 0.00488 *D SDFFRHQX1
*I *552:SE I *C 42.181 85.1755 *L 0.00488 *D SDFFRHQX1
*I *551:SE I *C 48.77 82.735 *L 0.00488 *D SDFFRHQX1
*I *615:SE I *C 48.4615 90.521 *L 0.00488 *D SDFFRHQX1
*I *600:SE I *C 48.8525 65.6005 *L 0.00488 *D SDFFRHQX1
*I *839:SE I *C 57.166 80.9715 *L 0.00488 *D SDFFRHQX1
*I *583:SE I *C 48.553 94.5035 *L 0.00488 *D SDFFRHQX1
*I *568:SE I *C 48.6955 61.375 *L 0.00488 *D SDFFRHQX1
*I *773:SE I *C 58.535 83.172 *L 0.00488 *D SDFFRHQX1
*I *807:SE I *C 58.5425 78.8825 *L 0.00488 *D SDFFRHQX1
*I *632:SE I *C 49.0745 61.5495 *L 0.00488 *D SDFFRHQX1
*I *614:SE I *C 58.6005 90.74 *L 0.00488 *D SDFFRHQX1
*I *791:SE I *C 49.7895 60.319 *L 0.00488 *D SDFFRHQX1
*I *582:SE I *C 58.853 94.7915 *L 0.00488 *D SDFFRHQX1
*I *550:SE I *C 60.0105 82.8915 *L 0.00488 *D SDFFRHQX1
*I *616:SE I *C 40.921 92.151 *L 0.00488 *D SDFFRHQX1
*I *599:SE I *C 44.7575 58.9755 *L 0.00488 *D SDFFRHQX1
*I *584:SE I *C 40.527 95.2195 *L 0.00488 *D SDFFRHQX1
*I *857:SE I *C 50.16 59.7915 *L 0.00488 *D SDFFRHQX1
*I *825:SE I *C 50.219 59.4975 *L 0.00488 *D SDFFRHQX1
*I *631:SE I *C 46.263 57.517 *L 0.00488 *D SDFFRHQX1
*I *581:SE I *C 69.448 94.867 *L 0.00488 *D SDFFRHQX1
*I *567:SE I *C 46.117 56.998 *L 0.00488 *D SDFFRHQX1
*I *856:SE I *C 47.269 56.7685 *L 0.00488 *D SDFFRHQX1
*I *790:SE I *C 47.0755 55.5335 *L 0.00488 *D SDFFRHQX1
*P *35 I *C 57.565 101.79 *L 0
*I *824:SE I *C 47.3985 56.0915 *L 0.00488 *D SDFFRHQX1
*I *613:SE I *C 69.45 91.2765 *L 0.00488 *D SDFFRHQX1
*I *549:SE I *C 70.228 81.3165 *L 0.00488 *D SDFFRHQX1
*I *772:SE I *C 69.732 82.646 *L 0.00488 *D SDFFRHQX1
*I *837:SE I *C 75.297 81.8585 *L 0.00488 *D SDFFRHQX1
*I *805:SE I *C 75.119 78.6485 *L 0.00488 *D SDFFRHQX1
*I *838:SE I *C 69.6975 80.492 *L 0.00488 *D SDFFRHQX1
*I *548:SE I *C 75.944 84.129 *L 0.00488 *D SDFFRHQX1
*I *804:SE I *C 82.1325 80.162 *L 0.00488 *D SDFFRHQX1
*I *806:SE I *C 69.98 78.079 *L 0.00488 *D SDFFRHQX1
*I *771:SE I *C 76.3885 84.893 *L 0.00488 *D SDFFRHQX1
*I *612:SE I *C 76.276 92.9055 *L 0.00488 *D SDFFRHQX1
*I *580:SE I *C 76.511 95.3795 *L 0.00488 *D SDFFRHQX1
*I *836:SE I *C 84.5075 84.384 *L 0.00488 *D SDFFRHQX1
*I *770:SE I *C 90.353 88.0855 *L 0.00488 *D SDFFRHQX1
*I *547:SE I *C 89.49 89.377 *L 0.00488 *D SDFFRHQX1
*I *835:SE I *C 96.289 84.597 *L 0.00488 *D SDFFRHQX1
*I *610:SE I *C 103.399 92.175 *L 0.00488 *D SDFFRHQX1
*I *611:SE I *C 94.853 93.7675 *L 0.00488 *D SDFFRHQX1
*I *578:SE I *C 105.555 93.6565 *L 0.00488 *D SDFFRHQX1
*I *769:SE I *C 99.5065 86.6825 *L 0.00488 *D SDFFRHQX1
*I *579:SE I *C 95.346 96.0055 *L 0.00488 *D SDFFRHQX1
*I *577:SE I *C 107.155 85.422 *L 0.00488 *D SDFFRHQX1
*I *609:SE I *C 104.371 85.242 *L 0.00488 *D SDFFRHQX1
*I *803:SE I *C 91.748 80.0155 *L 0.00488 *D SDFFRHQX1
*I *834:SE I *C 98.2655 78.749 *L 0.00488 *D SDFFRHQX1
*I *546:SE I *C 101.002 88.516 *L 0.00488 *D SDFFRHQX1
*I *802:SE I *C 93.736 72.39 *L 0.00488 *D SDFFRHQX1
*I *544:SE I *C 95.585 63.505 *L 0.00488 *D SDFFRHQX1
*I *545:SE I *C 101.099 77.4555 *L 0.00488 *D SDFFRHQX1
*I *833:SE I *C 95.7525 63.9525 *L 0.00488 *D SDFFRHQX1
*I *768:SE I *C 100.106 76.6575 *L 0.00488 *D SDFFRHQX1
*I *767:SE I *C 96.6425 63.8335 *L 0.00488 *D SDFFRHQX1
*I *608:SE I *C 100.291 64.501 *L 0.00488 *D SDFFRHQX1
*I *801:SE I *C 92.208 63.398 *L 0.00488 *D SDFFRHQX1
*I *576:SE I *C 106.288 65.2435 *L 0.00488 *D SDFFRHQX1
*I *800:SE I *C 92.7735 57.4895 *L 0.00488 *D SDFFRHQX1
*I *543:SE I *C 95.3065 56.6675 *L 0.00488 *D SDFFRHQX1
*I *832:SE I *C 95.446 57.3445 *L 0.00488 *D SDFFRHQX1
*I *766:SE I *C 96.53 56.68 *L 0.00488 *D SDFFRHQX1
*I *607:SE I *C 98.2965 57.005 *L 0.00488 *D SDFFRHQX1
*I *575:SE I *C 105.229 56.6325 *L 0.00488 *D SDFFRHQX1
*I *831:SE I *C 97.145 43.7145 *L 0.00488 *D SDFFRHQX1
*I *799:SE I *C 95.4505 42.7075 *L 0.00488 *D SDFFRHQX1
*I *606:SE I *C 98.1175 42.9375 *L 0.00488 *D SDFFRHQX1
*I *765:SE I *C 98.2595 42.4605 *L 0.00488 *D SDFFRHQX1
*I *542:SE I *C 98.28 40.7375 *L 0.00488 *D SDFFRHQX1
*I *574:SE I *C 105.863 41.6055 *L 0.00488 *D SDFFRHQX1
*I *830:SE I *C 97.094 34.927 *L 0.00488 *D SDFFRHQX1
*I *605:SE I *C 93.1425 34.855 *L 0.00488 *D SDFFRHQX1
*I *797:SE I *C 91.285 25.4415 *L 0.00488 *D SDFFRHQX1
*I *541:SE I *C 99.078 30.473 *L 0.00488 *D SDFFRHQX1
*I *798:SE I *C 96.686 32.836 *L 0.00488 *D SDFFRHQX1
*I *764:SE I *C 98.4665 33.5125 *L 0.00488 *D SDFFRHQX1
*I *540:SE I *C 100.145 22.2165 *L 0.00488 *D SDFFRHQX1
*I *763:SE I *C 103.195 29.414 *L 0.00488 *D SDFFRHQX1
*I *537:SE I *C 102.482 11.2685 *L 0.00488 *D SDFFRHQX1
*I *538:SE I *C 103.146 11.7185 *L 0.00488 *D SDFFRHQX1
*I *536:SE I *C 99.6785 11.13 *L 0.00488 *D SDFFRHQX1
*I *539:SE I *C 103.296 12.991 *L 0.00488 *D SDFFRHQX1
*I *535:SE I *C 95.549 11.6315 *L 0.00488 *D SDFFRHQX1
*I *573:SE I *C 105.777 33.058 *L 0.00488 *D SDFFRHQX1
*I *534:SE I *C 94.0165 11.599 *L 0.00488 *D SDFFRHQX1
*I *533:SE I *C 84.9775 10.8525 *L 0.00488 *D SDFFRHQX1
*I *531:SE I *C 74.905 11.105 *L 0.00488 *D SDFFRHQX1
*I *532:SE I *C 74.8225 10.421 *L 0.00488 *D SDFFRHQX1
*I *530:SE I *C 73.8665 26.6565 *L 0.00488 *D SDFFRHQX1
*I *796:SE I *C 74.7955 18.1235 *L 0.00488 *D SDFFRHQX1
*I *795:SE I *C 73.135 16.825 *L 0.00488 *D SDFFRHQX1
*I *529:SE I *C 72.597 27.5435 *L 0.00488 *D SDFFRHQX1
*I *572:SE I *C 76.151 35.6345 *L 0.00488 *D SDFFRHQX1
*I *604:SE I *C 76.224 34.306 *L 0.00488 *D SDFFRHQX1
*I *603:SE I *C 73.063 38.802 *L 0.00488 *D SDFFRHQX1
*I *829:SE I *C 77.846 36.0215 *L 0.00488 *D SDFFRHQX1
*I *635:SE I *C 71.572 38.5025 *L 0.00488 *D SDFFRHQX1
*I *860:SE I *C 71.919 38.918 *L 0.00488 *D SDFFRHQX1
*I *794:SE I *C 72.056 41.7455 *L 0.00488 *D SDFFRHQX1
*I *571:SE I *C 72.244 40.319 *L 0.00488 *D SDFFRHQX1
*I *828:SE I *C 72.659 40.543 *L 0.00488 *D SDFFRHQX1
*I *827:SE I *C 71.934 54.409 *L 0.00488 *D SDFFRHQX1
*I *859:SE I *C 71.44 47.969 *L 0.00488 *D SDFFRHQX1
*I *793:SE I *C 72.406 57.1255 *L 0.00488 *D SDFFRHQX1
*I *634:SE I *C 72.7045 58.1825 *L 0.00488 *D SDFFRHQX1
*I *858:SE I *C 69.1995 59.1245 *L 0.00488 *D SDFFRHQX1
*I *570:SE I *C 72.8475 58.3655 *L 0.00488 *D SDFFRHQX1
*I *826:SE I *C 69.2585 59.382 *L 0.00488 *D SDFFRHQX1
*I *602:SE I *C 74.1835 59.2175 *L 0.00488 *D SDFFRHQX1
*I *792:SE I *C 68.8185 60.349 *L 0.00488 *D SDFFRHQX1
*I *569:SE I *C 69.5155 61.528 *L 0.00488 *D SDFFRHQX1
*I *601:SE I *C 69.7585 64.543 *L 0.00488 *D SDFFRHQX1
*I *633:SE I *C 69.7175 61.583 *L 0.00488 *D SDFFRHQX1

*CAP
1 *35:1 5.02819e-07
2 *35:2 4.07283e-05
3 *35:3 4.02255e-05
4 *35:4 6.89686e-05
5 *35:5 8.27623e-05
6 *35:6 2.75874e-05
7 *35:7 1.91071e-05
8 *35:8 2.75874e-05
9 *35:9 3.77114e-06
10 *35:10 4.02255e-06
11 *35:11 2.23754e-05
12 *35:12 1.37937e-05
13 *35:13 1.25705e-05
14 *35:14 8.0451e-06
15 *35:15 3.26832e-06
16 *35:16 4.02255e-06
17 *35:17 0.000291635
18 *35:18 1.48331e-05
19 *35:19 9.30214e-06
20 *35:20 2.01127e-06
21 *35:23 0.000291635
22 *35:24 2.26268e-06
23 *35:25 7.03946e-06
24 *35:27 2.75874e-05
25 *35:30 8.27623e-05
26 *35:31 6.89686e-05
27 *35:32 3.26832e-06
28 *35:33 2.75874e-05
29 *35:34 5.38016e-05
30 *35:35 1.20676e-05
31 *35:36 1.37937e-05
32 *35:37 4.72649e-05
33 *35:38 7.21545e-05
34 *35:39 2.51409e-07
35 *35:40 1.23191e-05
36 *35:41 0.000440972
37 *35:42 5.32988e-05
38 *35:43 1.25705e-06
39 *35:44 2.28782e-05
40 *35:46 3.77114e-06
41 *35:47 0.000549254
42 *35:48 6.03382e-06
43 *35:50 5.78241e-06
44 *35:52 5.02819e-06
45 *35:53 0.000103254
46 *35:57 8.14558e-05
47 *35:58 1.62912e-05
48 *35:59 9.7747e-05
49 *35:60 0.000306101
50 *35:61 0.000105552
51 *35:62 3.25823e-05
52 *35:63 0.000321406
53 *35:64 0.000107135
54 *35:65 3.69432e-06
55 *35:66 3.25823e-05
56 *35:67 0.000168356
57 *35:68 1.58328e-06
58 *35:69 8.97193e-06
59 *35:70 3.25823e-05
60 *35:71 1.62912e-05
61 *35:72 0.000168356
62 *35:74 5.2776e-06
63 *35:75 2.6388e-06
64 *35:76 1.62912e-05
65 *35:77 0.000195494
66 *35:78 1.53051e-05
67 *35:80 2.90268e-06
68 *35:81 1.3194e-06
69 *35:82 0.000195494
70 *35:83 6.39209e-05
71 *35:84 2.6388e-07
72 *35:85 7.38865e-06
73 *35:86 4.59152e-05
74 *35:87 6.39209e-05
75 *35:89 6.06925e-06
76 *35:90 0.000229576
77 *35:91 4.13909e-06
78 *35:93 3.25823e-05
79 *35:94 0.000183661
80 *35:95 8.52165e-06
81 *35:96 3.25823e-05
82 *35:97 0.000130329
83 *35:98 4.38256e-06
84 *35:99 3.9582e-06
85 *35:100 8.14558e-05
86 *35:101 0.000146621
87 *35:103 6.86089e-06
88 *35:104 6.51647e-05
89 *35:105 1.74161e-05
90 *35:106 8.23306e-05
91 *35:107 3.25823e-05
92 *35:108 2.90268e-06
93 *35:109 7.65253e-05
94 *35:110 2.45409e-05
95 *35:111 8.83999e-05
96 *35:112 0.000153051
97 *35:114 0.000198966
98 *35:115 7.12477e-06
99 *35:116 6.06925e-06
100 *35:117 0.000153051
101 *35:118 3.25823e-05
102 *35:119 0.000164661
103 *35:122 0.00042357
104 *35:123 3.25823e-05
105 *35:124 0.00021937
106 *35:125 4.53874e-05
107 *35:126 6.51647e-05
108 *35:127 0.000521317
109 *35:128 2.11104e-06
110 *35:129 0.00021937
111 *35:130 3.16656e-06
112 *35:131 0.000160439
113 *35:132 1.1083e-05
114 *35:133 0.000162912
115 *35:134 9.23581e-06
116 *35:135 1.85041e-05
117 *35:137 0.000164397
118 *35:138 1.16107e-05
119 *35:139 0.000155162
120 *35:140 7.12477e-06
121 *35:141 2.02085e-05
122 *35:142 3.9582e-06
123 *35:143 5.27761e-07
124 *35:144 0.000146454
125 *35:145 1.53051e-05
126 *35:147 1.70433e-06
127 *35:150 6.59701e-06
128 *35:151 0.000407279
129 *35:154 0.000407279
130 *35:155 0.000137745
131 *35:156 0.000137745
132 *35:157 0.000114038
133 *35:158 0.000161961
134 *35:159 3.82626e-05
135 *35:160 0.000173185
136 *35:161 4.43319e-05
137 *35:162 6.61393e-06
138 *35:163 0.000187892
139 *35:164 6.06925e-06
140 *35:165 6.86831e-06
141 *35:166 0.000118033
142 *35:167 6.26307e-05
143 *35:169 2.54382e-07
144 *35:170 0.000118033
145 *35:171 0.000103279
146 *35:173 3.13153e-05
147 *35:174 0.000236066
148 *35:175 0.000156577
149 *35:176 1.56577e-05
150 *35:177 0.000132787
151 *35:178 0.000165094
152 *35:179 0.000234865
153 *35:180 1.56577e-05
154 *35:181 1.56577e-05
155 *35:182 0.000326881
156 *35:183 7.83496e-05
157 *35:184 0.000219207
158 *35:185 4.07011e-06
159 *35:186 1.56577e-05
160 *35:187 0.000174252
161 *35:188 2.28944e-06
162 *35:189 8.44548e-05
163 *35:190 2.77276e-05
164 *35:191 0.000109604
165 *35:192 6.61393e-06
166 *35:193 4.57888e-06
167 *35:194 1.47542e-05
168 *35:195 0.000360126
169 *35:197 6.10517e-06
170 *35:198 3.20521e-05
171 *35:199 0.000103279
172 *35:200 2.54382e-06
173 *35:201 9.9209e-06
174 *35:202 1.56577e-05
175 *35:203 0.000610649
176 *35:205 4.32449e-06
177 *35:206 0.000250821
178 *35:208 5.34202e-06
179 *35:209 0.000109604
180 *35:210 4.83326e-06
181 *35:211 0.000250523
182 *35:213 1.56577e-05
183 *35:214 0.000147542
184 *35:216 0.000236066
185 *35:217 9.3946e-05
186 *35:218 5.08764e-06
187 *35:219 0.000103279
188 *35:220 1.56577e-05
189 *35:221 0.000140919
190 *35:222 0.000236066
191 *35:223 2.82364e-05
192 *35:224 2.54382e-07
193 *35:225 0.000103279
194 *35:226 6.86831e-06
195 *35:227 0.000140919
196 *35:228 0.000109604
197 *35:229 3.07802e-05
198 *35:231 1.56577e-05
199 *35:232 9.66651e-06
200 *35:233 1.78067e-06
201 *35:234 0.000140919
202 *35:235 2.54382e-06
203 *35:236 1.56577e-05
204 *35:237 2.7982e-06
205 *35:238 5.08764e-06
206 *35:239 3.81573e-06
207 *35:240 3.13153e-05
208 *35:242 3.56135e-06
209 *35:244 3.30697e-06
210 *35:245 7.88584e-06
211 *35:246 7.37708e-05
212 *35:247 4.57888e-06
213 *35:249 4.07011e-06
214 *35:250 0.000103745
215 *35:251 1.01753e-06
216 *35:253 0.000120361
217 *35:254 1.56577e-05
218 *35:256 9.03874e-05
219 *35:257 5.92401e-05
220 *35:258 1.56577e-05
221 *35:259 0.00017772
222 *35:260 5.92401e-05
223 *35:261 6.10517e-06
224 *35:262 0.00016291
225 *35:263 1.481e-05
226 *35:264 2.85707e-06
227 *35:265 1.24647e-05
228 *35:266 4.41548e-06
229 *35:267 0.000346485
230 *35:268 5.19468e-06
231 *35:269 6.35955e-06
232 *35:270 9.86989e-06
233 *35:271 0.000391679
234 *35:272 2.33761e-06
235 *35:274 5.45441e-06
236 *35:275 5.92401e-05
237 *35:276 4.51937e-05
238 *35:279 0.00010367
239 *35:280 7.40501e-05
240 *35:281 4.44301e-05
241 *35:282 8.07773e-05
242 *35:283 0.000340631
243 *35:284 0.000105452
244 *35:285 8.38941e-05
245 *35:286 9.35042e-06
246 *35:287 0.00026658
247 *35:288 0.000135581
248 *35:289 3.11681e-06
249 *35:290 1.63632e-05
250 *35:291 5.19468e-07
251 *35:292 3.01291e-05
252 *35:293 1.481e-05
253 *35:295 7.01282e-06
254 *35:296 2.33761e-06
255 *35:297 1.481e-05
256 *35:298 1.481e-05
257 *35:300 1.81814e-06
258 *35:301 0.00011848
259 *35:302 1.29867e-06
260 *35:304 0.00016291
261 *35:305 6.1557e-05
262 *35:306 5.45441e-06
263 *35:307 5.92401e-05
264 *35:308 3.40252e-05
265 *35:309 6.51932e-05
266 *35:310 4.15574e-06
267 *35:311 0.000331421
268 *35:312 3.48044e-05
269 *35:313 3.63628e-06
270 *35:315 0.000331421
271 *35:316 7.79202e-07
272 *35:318 1.481e-05
273 *35:320 0.00011848
274 *35:321 2.38955e-05
275 *35:322 0.00011848
276 *35:323 2.77915e-05
277 *35:324 3.01291e-05
278 *35:325 4.44301e-05
279 *35:326 3.89601e-06
280 *35:327 3.29862e-05
281 *35:328 8.57122e-06
282 *35:329 2.962e-05
283 *35:331 2.85707e-06
284 *35:332 1.48048e-05
285 *35:333 0.000685043
286 *35:335 6.23362e-06
287 *35:336 0.000669978
288 *35:337 1.50646e-05
289 *35:339 9.3315e-05
290 *35:340 2.962e-05
291 *35:341 6.221e-05
292 *35:342 0.000171078
293 *35:343 0.00013329
294 *35:344 4.28277e-06
295 *35:345 1.12423e-05
296 *35:346 0.000482128
297 *35:347 1.19478e-05
298 *35:348 0.000414681
299 *35:349 3.34591e-05
300 *35:350 1.17776e-05
301 *35:351 6.69182e-06
302 *35:352 0.000342155
303 *35:353 1.58438e-05
304 *35:354 3.11681e-06
305 *35:355 0.00031101
306 *35:356 4.65751e-05
307 *35:357 2.40906e-06
308 *35:358 5.35346e-07
309 *35:359 8.29786e-06
310 *35:360 2.19492e-05
311 *35:361 3.89601e-06
312 *35:362 3.37654e-06
313 *35:363 1.53243e-05
314 *35:364 3.1105e-05
315 *35:365 2.27522e-05
316 *35:368 1.60604e-06
317 *35:369 2.9444e-05
318 *35:371 2.59734e-07
319 *35:372 1.53243e-05
320 *35:373 3.1105e-05
321 *35:374 2.9444e-06
322 *35:376 7.49484e-06
323 *35:379 4.65751e-05
324 *35:382 4.65751e-05
325 *35:383 0.000108122
326 *35:384 0.000108122
327 *35:385 0.000292854
328 *35:386 0.000267787
329 *35:387 3.44676e-05
330 *35:388 6.02581e-06
331 *35:389 2.16929e-06
332 *35:390 1.20516e-06
333 *35:391 0.000170332
334 *35:394 0.000232542
335 *35:395 3.21208e-06
336 *35:396 7.77625e-05
337 *35:397 8.29786e-06
338 *35:398 4.38984e-05
339 *35:399 1.55525e-05
340 *35:400 5.08579e-06
341 *35:401 4.63074e-05
342 *35:402 7.76251e-05
343 *35:404 2.40906e-06
344 *35:405 0.000310501
345 *35:407 0.000232875
346 *35:408 6.221e-05
347 *35:409 3.1105e-05
348 *35:410 0.000217735
349 *35:411 0.000202183
350 *35:412 1.15099e-05
351 *35:413 0.000155525
352 *35:414 0.00015525
353 *35:415 0.000171078
354 *35:416 1.76664e-05
355 *35:417 3.10501e-05
356 *35:418 0.000357076
357 *35:419 4.01509e-05
358 *35:420 6.15648e-06
359 *35:421 1.5525e-05
360 *35:422 1.5525e-05
361 *35:423 0.000201825
362 *35:424 1.55525e-05
363 *35:425 4.256e-05
364 *35:427 0.000279945
365 *35:428 1.55525e-05
366 *35:429 0.000233288
367 *35:430 1.55525e-05
368 *35:431 2.40906e-06
369 *35:432 0.000279945
370 *35:433 1.55525e-05
371 *35:434 0.000233288
372 *35:435 6.42415e-06
373 *35:437 1.33836e-06
374 *35:438 4.01509e-06
375 *35:439 7.76251e-05
376 *35:440 1.17776e-05
377 *35:441 6.15648e-06
378 *35:442 9.63623e-06
379 *35:443 0.000139335
380 *35:444 5.35346e-06
381 *35:445 4.81811e-06
382 *35:446 5.62113e-06
383 *35:447 0.000244891
384 *35:448 3.1105e-05
385 *35:452 0.000183181
386 *35:453 1.5363e-05
387 *35:454 3.1105e-05
388 *35:455 0.000215082
389 *35:456 1.5363e-05
390 *35:457 4.28277e-06
391 *35:458 0.000107541
392 *35:459 0.000107541
393 *35:460 7.63253e-06
394 *35:461 4.28277e-06
395 *35:462 3.05301e-05
396 *35:463 7.63253e-05
397 *35:464 1.47387e-05
398 *35:466 0.000213711
399 *35:467 7.63253e-05
400 *35:468 7.10615e-06
401 *35:469 0.000183181
402 *35:470 0.000122904
403 *35:471 0.000122904
404 *35:473 1.5363e-05
405 *35:474 0.000122904
406 *35:475 0.000245809
407 *35:476 0.000107541
408 *35:477 1.60546e-05
409 *35:478 4.47424e-06
410 *35:479 0.000122904
411 *35:480 3.3162e-05
412 *35:481 9.21782e-05
413 *35:482 1.92129e-05
414 *35:483 1.15804e-05
415 *35:484 1.02644e-05
416 *35:485 3.52676e-05
417 *35:486 0.000133701
418 *35:487 3.15829e-06
419 *35:488 7.10615e-06
420 *35:489 1.02644e-05
421 *35:490 2.10553e-06
422 *35:491 0.000323988
423 *35:496 0.000186865
424 *35:497 3.42148e-06
425 *35:498 0.000322624
426 *35:500 0.000199719
427 *35:501 0.000122904
428 *35:502 6.10602e-05
429 *35:503 1.52651e-05
430 *35:504 0.000199235
431 *35:505 1.52651e-05
432 *35:506 1.5363e-05
433 *35:507 0.000140544
434 *35:508 3.07261e-05
435 *35:509 0.000361591
436 *35:510 2.36872e-06
437 *35:511 0.000138267
438 *35:512 0.000346228
439 *35:513 1.34227e-05
440 *35:515 3.23725e-05
441 *35:516 0.000107541
442 *35:517 0.000197373
443 *35:518 1.76338e-05
444 *35:519 3.63203e-05
445 *35:520 3.68467e-05
446 *35:521 0.000301743
447 *35:522 4.21105e-06
448 *35:523 3.94786e-06
449 *35:524 4.4216e-05
450 *35:525 2.06673e-06
451 *35:526 0.000102303
452 *35:529 7.36934e-06
453 *35:531 1.64619e-05
454 *35:533 6.58476e-05
455 *35:534 4.93857e-05
456 *35:535 0.000141055
457 *35:536 7.75026e-07
458 *35:537 0.000306135
459 *35:538 2.32508e-06
460 *35:539 6.45855e-06
461 *35:540 0.000158622
462 *35:541 1.55005e-06
463 *35:543 0.000362162
464 *35:545 0.000740785
465 *35:546 0.000131695
466 *35:547 0.000543242
467 *35:548 4.28847e-05
468 *35:549 0.000145963
469 *35:550 3.29238e-05
470 *35:551 4.0818e-05
471 *35:552 4.36598e-05
472 *35:553 0.000149063
473 *35:554 0.000104887
474 *35:555 7.54358e-05
475 *35:556 7.75026e-07
476 *35:557 3.1001e-06
477 *35:558 0.000109795
478 *35:559 3.41011e-05
479 *35:560 5.16684e-07
480 *35:563 0.000329238
481 *35:564 9.30031e-06
482 *35:565 1.64619e-05
483 *35:567 0.0003457
484 *35:568 4.39181e-06
485 *35:569 1.64619e-05
486 *35:570 5.83853e-05
487 *35:571 1.64619e-05
488 *35:573 7.90526e-05
489 *35:574 6.58772e-05
490 *35:575 4.90849e-05
491 *35:576 9.42948e-05
492 *35:577 1.55005e-06
493 *35:578 5.94186e-06
494 *35:579 0.000693119
495 *35:580 1.08504e-05
496 *35:581 4.39181e-06
497 *35:582 3.29238e-05
498 *35:584 2.58342e-06
499 *35:585 0.000879109
500 *35:586 1.64619e-05
501 *35:588 4.93857e-05
502 *35:590 2.81247e-05
503 *35:591 0.000237658
504 *35:592 1.64619e-05
505 *35:593 0.000492234
506 *35:594 0.000112379
507 *35:595 2.81247e-05
508 *35:596 7.03118e-05
509 *35:597 3.1001e-06
510 *35:598 0.000541249
511 *35:599 8.68029e-05
512 *35:600 0.000490333
513 *35:601 4.09755e-06
514 *35:602 4.21871e-05
515 *35:603 5.62495e-05
516 *35:604 3.87513e-06
517 *35:605 8.18459e-05
518 *35:606 4.39852e-06
519 *35:607 9.17114e-05
520 *35:608 0.000588503
521 *35:609 1.29171e-06
522 *35:610 4.57962e-06
523 *35:611 5.62495e-05
524 *35:612 2.9888e-05
525 *35:613 8.38793e-05
526 *35:614 7.75026e-07
527 *35:615 8.18459e-05
528 *35:616 0.000221737
529 *35:617 1.00907e-05
530 *35:618 4.9085e-06
531 *35:619 0.0002462
532 *35:620 5.94186e-06
533 *35:622 4.82065e-07
534 *35:623 2.81247e-05
535 *35:624 3.83242e-05
536 *35:625 3.56728e-05
537 *35:626 8.38793e-05
538 *35:628 0.000501172
539 *35:629 6.54767e-05
540 *35:630 0.00011462
541 *35:631 0.000117984
542 *35:632 5.6922e-06
543 *35:634 3.9268e-05
544 *35:635 1.03337e-06
545 *35:638 2.09698e-05
546 *35:639 4.21807e-05
547 *35:640 5.78478e-06
548 *35:641 2.81247e-05
549 *35:642 0.000717217
550 *35:643 9.49563e-05
551 *35:644 5.17473e-06
552 *35:645 5.6922e-06
553 *35:647 0.000428009
554 *35:649 4.4591e-05
555 *35:650 3.85652e-06
556 *35:652 0.000112499
557 *35:653 0.000225877
558 *35:654 6.46841e-06
559 *35:655 0.000101425
560 *35:658 0.000460933
561 *35:659 2.65136e-06
562 *35:660 3.49497e-05
563 *35:662 6.98994e-05
564 *35:663 8.43742e-05
565 *35:664 9.57325e-06
566 *35:665 6.72715e-06
567 *35:667 6.46841e-06
568 *35:668 0.000160947
569 *35:669 3.29238e-05
570 *35:671 1.40624e-05
571 *35:672 1.39799e-05
572 *35:673 0.000139799
573 *35:674 1.92826e-06
574 *35:675 1.63692e-05
575 *35:678 0.000166889
576 *35:679 2.32508e-06
577 *35:680 1.40624e-05
578 *35:681 2.81247e-05
579 *35:682 1.40624e-05
580 *35:683 6.98994e-05
581 *35:684 4.09755e-06
582 *35:685 0.00060566
583 *35:686 5.94186e-06
584 *35:687 5.94186e-06
585 *35:688 4.57962e-06
586 *35:689 2.81247e-05
587 *35:690 1.40624e-05
588 *35:691 2.81247e-05
589 *35:692 2.16929e-06
590 *35:693 0.000345154
591 *35:694 0.00058929
592 *35:696 3.61679e-06
593 *35:697 1.10875e-05
594 *35:698 4.57962e-06
595 *35:699 2.41032e-06
596 *35:700 4.21871e-05
597 *35:702 0.000345154
598 *35:703 5.6922e-06
599 *35:705 6.50787e-06
600 *35:706 9.15923e-06
601 *35:707 2.77187e-05
602 *35:708 1.40624e-05
603 *35:709 5.9535e-05
604 *35:710 8.18459e-05
605 *35:711 5.95094e-06
606 *35:713 4.57962e-06
607 *35:714 4.82065e-07
608 *35:715 3.15752e-05
609 *35:716 1.20516e-06
610 *35:717 3.85652e-05
611 *35:718 3.03701e-05
612 *35:719 8.18459e-05
613 *35:720 2.58736e-07
614 *35:724 6.74891e-06
615 *35:725 1.92826e-06
616 *35:726 6.98994e-06
617 *35:727 2.41032e-06
618 *35:728 7.50336e-06
619 *35:730 0.000185773
620 *35:732 7.23097e-07
621 *35 7.50336e-06
622 *35:736 0.000324455
623 *35:739 0.000138683
624 *35:740 2.58736e-07
625 *35:741 3.27383e-05
626 *35:742 2.58736e-07
627 *35:743 3.27383e-05
628 *35:745 0.000330148
629 *35:746 0.000330148
630 *35:747 3.27383e-05
631 *35:748 0.000294645
632 *35:749 3.27383e-05
633 *35:750 0.000294645
634 *35:751 4.65726e-05
635 *35:752 2.22513e-05
636 *35:753 1.63692e-05
637 *35:754 1.63692e-05
638 *35:755 1.83703e-05
639 *35:756 5.14885e-05
640 *35:757 2.30275e-05
641 *35:758 9.00403e-05
642 *35:759 0.000120054
643 *35:760 0.00018215
644 *35:761 4.91599e-06
645 *35:762 7.76209e-07
646 *35:763 0.00020948
647 *35:764 0.000120054
648 *35:765 2.06989e-06
649 *35:766 0.000166109
650 *35:769 1.63692e-05
651 *35:770 0.00011944
652 *35:771 1.63692e-05
653 *35:773 0.000389242
654 *35:774 1.13844e-05
655 *35:775 1.63692e-05
656 *35:776 2.91552e-05
657 *35:777 4.91075e-05
658 *35:778 0.000389242
659 *35:779 6.98588e-06
660 *35:780 7.76209e-07
661 *35:781 2.91552e-05
662 *35:782 3.27383e-05
663 *35:783 2.09576e-05
664 *35:784 7.57854e-05
665 *35:786 3.10484e-06
666 *35:787 3.56351e-06
667 *35:788 1.8629e-05
668 *35:789 2.66498e-05
669 *35:790 0.000297291
670 *35:791 2.32863e-06
671 *35:792 6.17675e-06
672 *35:793 0.000434418
673 *35:794 5.6922e-06
674 *35:795 0.000217251
675 *35:796 4.25462e-06
676 *35:798 2.61324e-06
677 *35:799 0.000549815
678 *35:800 1.29368e-06
679 *35:802 0.00012881
680 *35:805 0.000132991
681 *35:806 7.24462e-06
682 *35:808 0.000450833
683 *35:809 4.91599e-06
684 *35:811 0.000322024
685 *35:812 7.44558e-06
686 *35:814 0.000204222
687 *35:815 8.77515e-06
688 *35:816 0.000278678
689 *35:817 1.32957e-06
690 *35:818 0.000104238
691 *35:819 1.06365e-06
692 *35:821 3.0846e-05
693 *35:822 4.83036e-05
694 *35:824 0.000322024
695 *35:825 4.83036e-05
696 *35:826 0.000338125
697 *35:827 4.78645e-06
698 *35:828 1.61012e-05
699 *35:829 0.00015423
700 *35:830 6.11601e-06
701 *35:831 0.000289846
702 *35:832 0.00015423
703 *35:833 1.32957e-06
704 *35:834 0.000300217
705 *35:835 0.000466935
706 *35:837 7.17967e-06
707 *35:838 3.19096e-06
708 *35:839 0.000500586
709 *35:840 6.44048e-05
710 *35:842 0.000225417
711 *35:843 9.80557e-05
712 *35:844 4.09507e-05
713 *35:845 4.38758e-05
714 *35:846 0.000225417
715 *35:847 4.83036e-05
716 *35:848 2.94928e-05
717 *35:849 4.17484e-05
718 *35:850 0.000176035
719 *35:851 4.83036e-05
720 *35:852 0.000114343
721 *35:853 0.000246768
722 *35:854 3.53082e-05
723 *35:855 7.97741e-07
724 *35:856 0.000125777
725 *35:857 6.38193e-06
726 *35:858 4.6269e-05
727 *35:859 0.000120193
728 *35:860 0.00030846
729 *35:861 5.81547e-06
730 *35:863 1.61012e-05
731 *35:865 0.000215922
732 *35:866 5.8501e-06
733 *35:867 0.000161012
734 *35:868 6.1692e-05
735 *35:870 1.61012e-05
736 *35:871 0.000169653
737 *35:872 0.000209316
738 *35:874 0.000209316
739 *35:875 0.000144911
740 *35:876 6.91376e-06
741 *35:877 3.22024e-05
742 *35:878 0.000330556
743 *35:879 0.000397299
744 *35:880 4.83036e-05
745 *35:881 0.00027372
746 *35:882 1.11684e-05
747 *35:883 3.22024e-05
748 *35:884 0.00012124
749 *35:885 8.77515e-06
750 *35:886 0.000839333
751 *35:887 6.38193e-06
752 *35:888 0.00012881
753 *35:889 7.97741e-07
754 *35:890 4.25462e-06
755 *35:891 4.25462e-06
756 *35:892 6.23086e-07
757 *35:893 1.48912e-05
758 *35:894 5.91229e-05
759 *35:895 0.000442034
760 *35:896 8.24332e-06
761 *35:897 6.12409e-05
762 *35:898 6.11601e-06
763 *35:900 7.7115e-06
764 *35:901 6.23086e-07
765 *35:902 6.11601e-06
766 *35:903 5.91229e-05
767 *35:904 1.47807e-05
768 *35:905 1.8614e-06
769 *35:906 0.000106969
770 *35:907 5.31827e-06
771 *35:908 3.45688e-06
772 *35:911 1.83962e-06
773 *35:912 0.000147807
774 *35:914 2.95614e-05
775 *35:915 4.57277e-05
776 *35:918 6.04447e-06
777 *35:919 0.000147807
778 *35:920 3.04851e-05
779 *35:921 2.95614e-05
780 *35:922 1.47807e-05
781 *35:923 4.20485e-06
782 *35:924 5.91229e-05
783 *35:925 2.31266e-05
784 *35:926 0.000335336
785 *35:927 6.30727e-06
786 *35:928 1.47807e-05
787 *35:930 0.000221711
788 *35:931 5.25606e-07
789 *35:932 2.47035e-05
790 *35:933 4.43422e-05
791 *35:934 0.000365822
792 *35:935 8.14689e-06
793 *35:936 2.36523e-06
794 *35:937 0.000473975
795 *35:938 5.78166e-06
796 *35:939 5.25606e-06
797 *35:940 1.57682e-06
798 *35:941 4.43422e-05
799 *35:942 1.47807e-05
800 *35:943 6.09703e-05
801 *35:944 1.83962e-06
802 *35:945 7.09568e-06
803 *35:946 0.000296607
804 *35:947 2.91711e-05
805 *35:948 9.4609e-06
806 *35:949 4.73045e-06
807 *35:951 1.83962e-06
808 *35:952 1.47807e-05
809 *35:953 0.000118246
810 *35:955 4.73045e-06
811 *35:956 5.80855e-05
812 *35:957 3.41644e-05
813 *35:958 3.67924e-06
814 *35:960 8.9353e-06
815 *35:961 3.94204e-06
816 *35:962 0.000133026
817 *35:964 5.83089e-05
818 *35:965 4.99325e-06
819 *35:967 7.09568e-06
820 *35:968 1.02493e-05
821 *35:969 5.91229e-05
822 *35:970 1.39286e-05
823 *35:971 2.23406e-07
824 *35:974 6.30727e-06
825 *35:975 4.43422e-05
826 *35:976 4.94069e-05
827 *35:977 1.6031e-05
828 *35:980 1.44542e-05
829 *35:981 5.51886e-05
830 *35:982 2.10242e-06
831 *35:983 2.07614e-05
832 *35:984 5.78166e-06
833 *35:986 7.88408e-07
834 *35:987 5.51886e-06
835 *35:989 7.39036e-05
836 *35:991 8.86843e-05
837 *35:992 0.000364215
838 *35:993 0.000680649
839 *35:994 0.000349434
840 *35:995 1.62938e-05
841 *35:996 0.000680649
842 *35:997 2.68087e-06
843 *35:998 2.31266e-05
844 *35:999 1.53835e-05
845 *35:1000 7.3724e-06
846 *35:1001 6.83287e-06
847 *35:1002 4.61505e-05
848 *35:1003 4.69152e-06
849 *35:1005 6.02562e-05
850 *35:1006 0.000107685
851 *35:1008 0.000135576
852 *35:1009 3.63615e-06
853 *35:1010 7.69175e-05
854 *35:1011 3.0767e-05
855 *35:1012 7.53202e-05
856 *35:1013 1.09084e-05
857 *35:1014 4.85686e-05
858 *35:1015 3.0767e-05
859 *35:1016 3.0767e-05
860 *35:1017 7.2723e-06
861 *35:1018 5.40228e-05
862 *35:1019 2.49336e-05
863 *35:1020 0.000435276
864 *35:1022 5.45422e-06
865 *35:1023 2.59725e-05
866 *35:1024 6.2334e-06
867 *35:1025 0.000404509
868 *35:1026 1.53238e-05
869 *35:1028 2.33752e-06
870 *35:1029 4.93477e-06
871 *35:1030 2.52154e-05
872 *35:1031 0.000111422
873 *35:1034 3.09663e-05
874 *35:1035 5.97367e-06
875 *35:1036 9.01246e-05
876 *35:1037 5.75088e-06
877 *35:1039 1.53835e-05
878 *35:1041 1.53835e-05
879 *35:1042 0.000180769
880 *35:1043 0.000180769
881 *35:1044 4.61505e-05
882 *35:1045 0.000246136
883 *35:1046 3.1167e-05
884 *35:1047 0.00030767
885 *35:1048 0.000140251
886 *35:1049 3.48031e-05
887 *35:1050 0.000107685
888 *35:1051 4.67505e-06
889 *35:1052 0.000104409
890 *35:1053 3.94782e-05
891 *35:1054 0.000520167
892 *35:1056 0.000123068
893 *35:1057 4.67505e-06
894 *35:1058 0.000523874
895 *35:1059 0.000107685
896 *35:1060 1.53835e-05
897 *35:1062 3.70729e-06
898 *35:1063 0.000156874
899 *35:1064 4.1556e-06
900 *35:1066 3.01281e-05
901 *35:1067 0.000183106
902 *35:1068 5.71395e-06
903 *35:1069 3.0767e-05
904 *35:1070 2.33752e-06
905 *35:1071 5.40228e-05
906 *35:1072 1.55835e-06
907 *35:1073 3.0767e-05
908 *35:1075 6.1534e-05
909 *35:1077 1.0389e-06
910 *35:1078 6.1534e-05
911 *35:1079 1.55835e-06
912 *35:1080 1.5064e-05
913 *35:1081 5.1945e-07
914 *35:1082 0.000353272
915 *35:1084 0.000153835
916 *35:1085 0.000812277
917 *35:1086 0.000153835
918 *35:1087 2.31706e-06
919 *35:1088 0.000512069
920 *35:1089 1.40251e-05
921 *35:1091 0.000109064
922 *35:1092 4.03168e-05
923 *35:1093 0.000185963
924 *35:1094 0.00013633
925 *35:1095 2.7266e-05
926 *35:1096 0.000166743
927 *35:1097 5.1945e-06
928 *35:1098 4.08989e-05
929 *35:1099 3.54509e-05
930 *35:1100 0.000218128
931 *35:1101 0.000129578
932 *35:1103 1.3633e-05
933 *35:1104 1.45974e-05
934 *35:1105 3.70729e-05
935 *35:1106 1.62194e-06
936 *35:1107 0.000259027
937 *35:1108 0.000129578
938 *35:1109 4.42558e-05
939 *35:1110 1.69145e-05
940 *35:1111 1.62194e-06
941 *35:1112 4.63411e-06
942 *35:1113 2.68778e-05
943 *35:1114 2.15486e-05
944 *35:1115 6.81649e-05
945 *35:1116 1.92433e-05
946 *35:1117 4.84265e-05
947 *35:1118 2.31706e-06
948 *35:1120 3.01217e-06
949 *35:1121 2.68778e-05
950 *35:1122 2.17803e-05
951 *35:1123 2.01584e-05
952 *35:1124 2.234e-05
953 *35:1125 4.1707e-06
954 *35:1128 0.000490787
955 *35:1129 2.31706e-07
956 *35:1130 2.43291e-05
957 *35:1131 3.09663e-06
958 *35:1133 0.000572585
959 *35:1135 4.1707e-06
960 *35:1137 4.12436e-05
961 *35:1138 8.17979e-05
962 *35:1140 4.12436e-05
963 *35:1141 1.34389e-05
964 *35:1143 1.34389e-05
965 *35:1144 6.25605e-06
966 *35:1145 0.000397318
967 *35:1146 6.25605e-06
968 *35:1147 0.000452533
969 *35:1149 4.52865e-05
970 *35:1150 5.52143e-05
971 *35:1151 8.15643e-05
972 *35:1152 0.000240067
973 *35:1153 2.92171e-06
974 *35:1154 4.01735e-05
975 *35:1155 0.000296553
976 *35:1157 6.81732e-06
977 *35:1158 0.000472755
978 *35:1159 2.76072e-05
979 *35:1161 0.000457024
980 *35:1162 4.14108e-05
981 *35:1163 2.76072e-05
982 *35:1164 3.77366e-05
983 *35:1165 3.01893e-06
984 *35:1166 4.14108e-05
985 *35:1167 6.81732e-06
986 *35:1168 8.38867e-05
987 *35:1170 5.84342e-06
988 *35:1171 1.11999e-05
989 *35:1172 2.79622e-05
990 *35:1173 5.59244e-05
991 *35:1174 5.84342e-06
992 *35:1175 4.38256e-06
993 *35:1176 0.000408562
994 *35:1177 7.04417e-06
995 *35:1180 0.000452337
996 *35:1181 9.55995e-06
997 *35:1182 4.37745e-05
998 *35:1183 8.38867e-05
999 *35:1184 2.51578e-06
1000 *35:1185 6.99056e-05
1001 *35:1186 0.000167773
1002 *35:1188 0.000111849
1003 *35:1189 8.38867e-05
1004 *35:1190 6.69197e-05
1005 *35:1191 0.000121009
1006 *35:1192 4.19433e-05
1007 *35:1193 2.49062e-05
1008 *35:1194 6.7926e-06
1009 *35:1195 6.64165e-05
1010 *35:1196 0.00012755
1011 *35:1197 0.000102141
1012 *35:1198 2.59125e-05
1013 *35:1199 1.25789e-06
1014 *35:1200 5.03155e-06
1015 *35:1201 6.54102e-06
1016 *35:1202 0.000131324
1017 *35:1203 1.00631e-06
1018 *35:1207 0.000102141
1019 *35:1208 2.79622e-05
1020 *35:1210 7.74859e-05
1021 *35:1211 1.39811e-05
1022 *35:1212 2.79622e-05
1023 *35:1213 4.5284e-06
1024 *35:1214 1.39811e-05
1025 *35:1215 1.39811e-05
1026 *35:1216 4.02524e-06
1027 *35:1218 2.79622e-05
1028 *35:1219 4.27682e-06
1029 *35:1220 8.30206e-06
1030 *35:1221 6.03786e-05
1031 *35:1222 1.39811e-05
1032 *35:1223 6.7926e-06
1033 *35:1224 1.15726e-05
1034 *35:1225 4.27682e-06
1035 *35:1226 0.000375354
1036 *35:1227 4.5284e-06
1037 *35:1228 1.23273e-05
1038 *35:1229 7.29575e-06
1039 *35:1231 0.000631054
1040 *35:1232 5.03155e-07
1041 *35:1233 5.28313e-06
1042 *35:1234 5.53471e-06
1043 *35:1236 0.000445106
1044 *35:1237 2.79622e-05
1045 *35:1239 7.54733e-07
1046 *35:1241 0.000191242
1047 *35:1242 6.17675e-06
1048 *35:1243 2.79622e-05
1049 *35:1245 8.26734e-05
1050 *35:1246 1.45776e-05
1051 *35:1248 1.25789e-06
1052 *35:1249 1.37789e-05
1053 *35:1250 2.91552e-05
1054 *35:1251 1.45776e-05
1055 *35:1252 3.52209e-06
1056 *35:1253 0.000145776
1057 *35:1254 4.37329e-05
1058 *35:1255 6.65189e-06
1059 *35:1256 2.2642e-06
1060 *35:1257 0.000145776
1061 *35:1258 7.28881e-05
1062 *35:1259 1.18784e-05
1063 *35:1260 9.02756e-06
1064 *35:1262 1.90054e-05
1065 *35:1263 5.83105e-05
1066 *35:1264 3.32594e-06
1067 *35:1265 1.47292e-05
1068 *35:1266 2.37567e-06
1069 *35:1267 3.27843e-05
1070 *35:1268 3.72981e-05
1071 *35:1269 7.36459e-06
1072 *35:1270 2.85081e-06
1073 *35:1272 6.81818e-05
1074 *35:1273 1.66297e-06
1075 *35:1274 4.15743e-05
1076 *35:1275 4.03864e-06
1077 *35:1277 0.000106668
1078 *35:1278 4.51378e-06
1079 *35:1280 4.27621e-06
1080 *35:1282 0.000192905
1081 *35:1283 1.45776e-05
1082 *35:1286 0.000137789
1083 *35:1287 1.45776e-05
1084 *35:1288 1.45776e-05
1085 *35:1289 2.91552e-05
1086 *35:1290 2.91552e-05
1087 *35:1291 5.46405e-06
1088 *35:1292 2.91552e-05
1089 *35:1293 1.45776e-05
1090 *35:1294 4.51378e-06
1091 *35:1295 8.07729e-06
1092 *35:1296 9.50269e-07
1093 *35:1297 1.90054e-06
1094 *35:1298 7.36459e-06
1095 *35:1299 2.61324e-06
1096 *35:1300 1.66297e-06
1097 *35:1301 3.08838e-06
1098 *35:1302 2.85081e-06
1099 *35:1304 7.12702e-07
1100 *35:1305 1.18784e-06

*RES
1 *35:1305 *633:SE 1.4
2 *35:1304 *601:SE 1.4
3 *35:1302 *569:SE 1.4
4 *35:1301 *35:1305 0.0107142
5 *35:1300 *35:1304 0.00642855
6 *35:1299 *792:SE 1.4
7 *35:1298 *35:1302 0.0257142
8 *35:1297 *35:1301 0.0171428
9 *35:1296 *35:1300 0.00857139
10 *35:1295 *35:1299 0.0235713
11 *35:1294 *35:1298 0.0407141
12 *35:1293 *35:1297 1.4
13 *35:1292 *35:1296 1.4
14 *35:1291 *35:1295 0.0492855
15 *35:1290 *35:1294 1.4
16 *35:1290 *35:1293 0.124289
17 *35:1289 *35:1292 0.248577
18 *35:1288 *35:1291 1.4
19 *35:1287 *35:1290 0.124289
20 *35:1286 *35:1289 1.4
21 *35:1283 *35:1288 0.124289
22 *35:1282 *35:1287 1.4
23 *35:1282 *35:1286 1.24285
24 *35:1280 *602:SE 1.4
25 *35:1278 *826:SE 1.4
26 *35:1277 *35:1283 1.4
27 *35:1277 *35:1282 0.497141
28 *35:1275 *570:SE 1.4
29 *35:1274 *35:1280 0.0385713
30 *35:1273 *858:SE 1.4
31 *35:1272 *35:1278 0.0407141
32 *35:1272 *35:1277 0.464998
33 *35:1270 *634:SE 1.4
34 *35:1269 *35:1275 0.0364284
35 *35:1268 *35:1274 0.336427
36 *35:1267 *35:1273 0.0149999
37 *35:1267 *35:1272 0.109285
38 *35:1266 *793:SE 1.4
39 *35:1265 *35:1270 0.0257142
40 *35:1264 *35:1269 0.0299999
41 *35:1263 *35:1268 1.4
42 *35:1262 *35:1267 0.171428
43 *35:1260 *35:1266 0.0214285
44 *35:1259 *35:1265 0.107142
45 *35:1258 *35:1264 1.4
46 *35:1258 *35:1263 0.497155
47 *35:1257 *35:1262 1.4
48 *35:1256 *859:SE 1.4
49 *35:1255 *35:1260 0.0599998
50 *35:1254 *35:1259 1.4
51 *35:1254 *35:1258 0.124289
52 *35:1253 *35:1257 1.24289
53 *35:1252 *35:1256 0.0192852
54 *35:1251 *35:1255 1.4
55 *35:1250 *35:1254 0.248577
56 *35:1249 *35:1253 1.4
57 *35:1248 *35:1252 0.010714
58 *35:1246 *35:1251 0.124289
59 *35:1245 *35:1250 1.4
60 *35:1245 *35:1249 0.124285
61 *35:1243 *35:1248 1.4
62 *35:1242 *827:SE 1.4
63 *35:1241 *35:1246 1.4
64 *35:1241 *35:1245 0.621426
65 *35:1239 *828:SE 1.4
66 *35:1237 *35:1243 0.248565
67 *35:1236 *35:1242 0.0557141
68 *35:1236 *35:1241 1.10357
69 *35:1234 *571:SE 1.4
70 *35:1233 *35:1239 0.00642841
71 *35:1232 *794:SE 1.4
72 *35:1231 *35:1237 1.4
73 *35:1231 *35:1236 2.74924
74 *35:1229 *860:SE 1.4
75 *35:1228 *35:1234 0.0471417
76 *35:1227 *35:1233 0.0385705
77 *35:1226 *35:1232 0.00428561
78 *35:1226 *35:1231 2.67851
79 *35:1225 *635:SE 1.4
80 *35:1224 *35:1229 0.0621413
81 *35:1223 *35:1228 0.0578557
82 *35:1222 *35:1227 1.4
83 *35:1221 *35:1226 0.514273
84 *35:1220 *35:1225 0.0364277
85 *35:1219 *35:1224 0.0364277
86 *35:1218 *35:1223 1.4
87 *35:1218 *35:1222 0.124283
88 *35:1217 *35:1221 1.4
89 *35:1216 *35:1220 0.0342849
90 *35:1215 *35:1219 1.4
91 *35:1214 *35:1218 0.124283
92 *35:1213 *35:1217 1.4
93 *35:1212 *35:1216 1.4
94 *35:1211 *35:1215 0.124283
95 *35:1210 *35:1214 1.4
96 *35:1210 *35:1213 0.0385705
97 *35:1208 *35:1212 0.248565
98 *35:1207 *35:1211 1.4
99 *35:1207 *35:1210 0.621413
100 *35:1203 *829:SE 1.4
101 *35:1202 *35:1208 1.4
102 *35:1202 *35:1207 0.248565
103 *35:1201 *603:SE 1.4
104 *35:1200 *604:SE 1.4
105 *35:1199 *572:SE 1.4
106 *35:1198 *35:1203 0.00857122
107 *35:1197 *35:1202 0.869979
108 *35:1196 *35:1201 0.0557129
109 *35:1195 *35:1200 0.0428561
110 *35:1194 *35:1199 0.010714
111 *35:1193 *35:1198 0.212138
112 *35:1192 *35:1197 1.4
113 *35:1191 *35:1196 1.03069
114 *35:1190 *35:1195 0.522844
115 *35:1190 *35:1194 0.0471417
116 *35:1189 *35:1193 1.4
117 *35:1188 *35:1192 0.372848
118 *35:1188 *35:1191 1.4
119 *35:1186 *35:1190 1.4
120 *35:1186 *35:1189 0.745696
121 *35:1185 *35:1188 0.621413
122 *35:1184 *529:SE 1.4
123 *35:1183 *35:1186 0.745696
124 *35:1182 *35:1185 1.4
125 *35:1181 *35:1184 0.021428
126 *35:1180 *35:1183 1.4
127 *35:1180 *35:1182 0.372848
128 *35:1177 *35:1181 0.0599985
129 *35:1176 *35:1180 3.47991
130 *35:1175 *795:SE 1.4
131 *35:1174 *796:SE 1.4
132 *35:1173 *35:1177 1.4
133 *35:1172 *35:1176 1.4
134 *35:1171 *35:1175 0.0385705
135 *35:1170 *35:1174 0.0514273
136 *35:1168 *35:1173 0.497131
137 *35:1168 *35:1172 0.248565
138 *35:1167 *35:1171 0.0599985
139 *35:1166 *35:1170 1.4
140 *35:1165 *530:SE 1.4
141 *35:1164 *35:1168 1.4
142 *35:1163 *35:1167 1.4
143 *35:1162 *35:1166 0.372851
144 *35:1161 *35:1165 0.0257137
145 *35:1161 *35:1164 0.321421
146 *35:1159 *35:1163 0.248567
147 *35:1158 *35:1162 1.4
148 *35:1158 *35:1161 3.65562
149 *35:1157 *532:SE 1.4
150 *35:1155 *35:1159 1.4
151 *35:1155 *35:1158 0.497131
152 *35:1154 *35:1157 0.0599985
153 *35:1153 *531:SE 1.4
154 *35:1152 *35:1155 2.11281
155 *35:1151 *35:1154 0.293564
156 *35:1151 *35:1153 0.0257137
157 *35:1150 *35:1152 1.4
158 *35:1149 *35:1151 0.398562
159 *35:1147 *35:1150 0.497135
160 *35:1147 *35:1149 1.4
161 *35:1146 *533:SE 1.4
162 *35:1145 *35:1147 3.60421
163 *35:1144 *35:1146 0.0578562
164 *35:1143 *35:1145 1.4
165 *35:1142 *35:1144 1.4
166 *35:1141 *35:1143 0.124284
167 *35:1140 *35:1142 1.4
168 *35:1138 *35:1141 1.4
169 *35:1137 *35:1140 0.381422
170 *35:1135 *534:SE 1.4
171 *35:1133 *35:1138 0.745696
172 *35:1133 *35:1137 1.4
173 *35:1131 *573:SE 1.4
174 *35:1130 *35:1135 0.0385708
175 *35:1129 *535:SE 1.4
176 *35:1128 *35:1133 4.47418
177 *35:1125 *539:SE 1.4
178 *35:1124 *35:1131 0.0299997
179 *35:1123 *35:1130 0.186426
180 *35:1122 *35:1129 0.00214282
181 *35:1121 *35:1128 1.4
182 *35:1120 *536:SE 1.4
183 *35:1118 *538:SE 1.4
184 *35:1117 *35:1125 0.0385708
185 *35:1116 *35:1124 0.186427
186 *35:1115 *35:1123 1.4
187 *35:1114 *35:1122 0.199283
188 *35:1113 *35:1121 0.248567
189 *35:1112 *35:1120 0.0278567
190 *35:1111 *537:SE 1.4
191 *35:1110 *35:1118 0.0214282
192 *35:1109 *35:1117 0.409279
193 *35:1108 *35:1116 1.4
194 *35:1107 *35:1115 0.621413
195 *35:1107 *35:1114 1.4
196 *35:1107 *35:1113 1.4
197 *35:1106 *35:1112 0.0149998
198 *35:1105 *35:1111 0.0149998
199 *35:1104 *35:1110 0.134998
200 *35:1103 *35:1109 1.4
201 *35:1101 *35:1108 1.11857
202 *35:1100 *35:1107 1.73996
203 *35:1100 *35:1106 1.4
204 *35:1099 *35:1105 0.327852
205 *35:1098 *35:1104 1.4
206 *35:1098 *35:1103 0.124283
207 *35:1097 *763:SE 1.4
208 *35:1096 *35:1101 1.4
209 *35:1095 *35:1100 0.248565
210 *35:1094 *35:1099 1.4
211 *35:1094 *35:1098 0.248565
212 *35:1093 *35:1097 0.0428561
213 *35:1093 *35:1096 1.37568
214 *35:1092 *35:1095 1.4
215 *35:1091 *35:1094 0.994261
216 *35:1089 *35:1093 0.115711
217 *35:1088 *35:1092 0.372851
218 *35:1088 *35:1091 1.4
219 *35:1087 *540:SE 1.4
220 *35:1086 *35:1089 1.4
221 *35:1085 *35:1088 4.36279
222 *35:1085 *35:1087 0.0214282
223 *35:1084 *35:1086 1.24288
224 *35:1082 *35:1085 2.96994
225 *35:1082 *35:1084 1.4
226 *35:1081 *764:SE 1.4
227 *35:1080 *35:1082 0.124283
228 *35:1079 *35:1081 0.00428561
229 *35:1078 *35:1080 1.4
230 *35:1077 *35:1079 0.00857122
231 *35:1075 *35:1078 0.497151
232 *35:1073 *35:1077 1.4
233 *35:1072 *798:SE 1.4
234 *35:1071 *35:1075 1.4
235 *35:1070 *541:SE 1.4
236 *35:1069 *35:1073 0.248575
237 *35:1068 *35:1072 0.0128568
238 *35:1067 *35:1071 0.445703
239 *35:1067 *35:1070 0.0192852
240 *35:1066 *35:1069 1.4
241 *35:1064 *35:1068 0.0342849
242 *35:1063 *35:1067 1.04569
243 *35:1063 *35:1066 0.248565
244 *35:1062 *797:SE 1.4
245 *35:1060 *35:1064 1.4
246 *35:1059 *35:1063 1.4
247 *35:1058 *35:1062 0.0342852
248 *35:1057 *605:SE 1.4
249 *35:1056 *35:1060 0.124288
250 *35:1056 *35:1059 0.870014
251 *35:1054 *35:1058 4.32204
252 *35:1053 *35:1057 0.0385705
253 *35:1052 *35:1056 1.4
254 *35:1051 *830:SE 1.4
255 *35:1050 *35:1054 1.4
256 *35:1049 *35:1053 0.287136
257 *35:1048 *35:1052 0.861408
258 *35:1048 *35:1051 0.0385705
259 *35:1047 *35:1050 0.870014
260 *35:1047 *35:1049 1.4
261 *35:1046 *35:1048 0.257137
262 *35:1045 *35:1047 1.61574
263 *35:1045 *35:1046 1.4
264 *35:1044 *35:1045 0.372863
265 *35:1043 *35:1044 1.4
266 *35:1042 *35:1043 1.49139
267 *35:1041 *35:1042 1.4
268 *35:1039 *35:1041 0.124288
269 *35:1037 *574:SE 1.4
270 *35:1036 *35:1039 1.4
271 *35:1035 *542:SE 1.4
272 *35:1034 *35:1037 0.0557137
273 *35:1031 *35:1036 0.743553
274 *35:1031 *35:1035 0.0492845
275 *35:1030 *35:1034 0.244283
276 *35:1029 *765:SE 1.4
277 *35:1028 *606:SE 1.4
278 *35:1026 *35:1031 0.126425
279 *35:1025 *35:1030 1.4
280 *35:1024 *35:1029 0.0407133
281 *35:1023 *35:1028 0.0192852
282 *35:1022 *799:SE 1.4
283 *35:1020 *35:1026 1.4
284 *35:1020 *35:1025 3.35575
285 *35:1019 *35:1024 0.010714
286 *35:1019 *35:1023 0.194995
287 *35:1018 *35:1022 0.0449989
288 *35:1017 *831:SE 1.4
289 *35:1016 *35:1020 0.248575
290 *35:1015 *35:1019 1.4
291 *35:1014 *35:1018 0.400704
292 *35:1013 *35:1017 0.0599985
293 *35:1012 *35:1016 1.4
294 *35:1011 *35:1015 0.248575
295 *35:1010 *35:1014 1.4
296 *35:1009 *35:1013 0.0299993
297 *35:1008 *35:1012 0.621413
298 *35:1008 *35:1011 1.4
299 *35:1006 *35:1010 0.621439
300 *35:1006 *35:1009 1.4
301 *35:1005 *35:1008 0.497131
302 *35:1003 *575:SE 1.4
303 *35:1002 *35:1006 0.248575
304 *35:1002 *35:1005 1.4
305 *35:1001 *607:SE 1.4
306 *35:1000 *35:1003 0.0449994
307 *35:999 *35:1002 0.124288
308 *35:998 *35:1001 0.055715
309 *35:997 *35:1000 0.025714
310 *35:996 *35:999 1.4
311 *35:995 *35:998 0.132859
312 *35:994 *35:997 1.4
313 *35:993 *35:996 5.59279
314 *35:992 *35:995 1.4
315 *35:992 *35:994 2.98281
316 *35:991 *35:993 1.4
317 *35:991 *35:992 0.124283
318 *35:989 *35:991 0.621416
319 *35:987 *766:SE 1.4
320 *35:986 *35:989 1.4
321 *35:984 *832:SE 1.4
322 *35:983 *35:987 0.0450006
323 *35:983 *35:986 0.00642866
324 *35:982 *543:SE 1.4
325 *35:981 *35:984 0.0471435
326 *35:980 *35:983 0.117859
327 *35:977 *35:982 0.0171431
328 *35:976 *35:981 0.402862
329 *35:975 *35:980 1.4
330 *35:974 *800:SE 1.4
331 *35:971 *576:SE 1.4
332 *35:970 *35:977 0.113573
333 *35:969 *35:976 1.4
334 *35:969 *35:975 0.37285
335 *35:968 *35:974 0.0514292
336 *35:967 *801:SE 1.4
337 *35:965 *608:SE 1.4
338 *35:964 *35:971 0.00214283
339 *35:962 *35:970 1.4
340 *35:962 *35:969 0.124283
341 *35:961 *35:968 0.0321433
342 *35:960 *35:967 0.0578579
343 *35:958 *767:SE 1.4
344 *35:957 *35:965 0.0407148
345 *35:956 *35:964 0.557136
346 *35:955 *768:SE 1.4
347 *35:953 *35:962 0.994266
348 *35:952 *35:961 1.4
349 *35:951 *35:960 0.0150002
350 *35:949 *833:SE 1.4
351 *35:948 *35:958 0.0300004
352 *35:947 *35:957 0.23786
353 *35:946 *35:956 1.4
354 *35:945 *35:955 0.0385719
355 *35:944 *545:SE 1.4
356 *35:943 *35:953 1.4
357 *35:942 *35:952 0.124283
358 *35:941 *35:951 1.4
359 *35:940 *544:SE 1.4
360 *35:939 *35:949 0.0385719
361 *35:938 *35:948 0.0471435
362 *35:937 *35:947 1.4
363 *35:937 *35:946 2.60998
364 *35:936 *35:945 0.019286
365 *35:935 *35:944 0.0150002
366 *35:934 *35:943 0.497149
367 *35:934 *35:942 1.4
368 *35:933 *35:941 0.37285
369 *35:932 *35:940 0.0128573
370 *35:931 *35:939 0.00428577
371 *35:930 *35:938 1.4
372 *35:930 *35:937 1.4914
373 *35:928 *35:936 1.4
374 *35:927 *35:935 0.0514292
375 *35:926 *35:934 2.48575
376 *35:926 *35:933 1.4
377 *35:925 *35:932 0.188574
378 *35:924 *35:931 1.4
379 *35:924 *35:930 0.37285
380 *35:923 *802:SE 1.4
381 *35:922 *35:928 0.124283
382 *35:921 *35:927 1.4
383 *35:920 *35:926 0.248575
384 *35:919 *35:925 1.4
385 *35:919 *35:924 0.124283
386 *35:918 *35:923 0.0342862
387 *35:915 *35:922 1.4
388 *35:914 *35:921 0.248566
389 *35:912 *35:920 1.4
390 *35:912 *35:919 1.11855
391 *35:911 *35:918 0.0150002
392 *35:908 *546:SE 1.4
393 *35:907 *834:SE 1.4
394 *35:906 *35:915 0.372862
395 *35:906 *35:914 1.4
396 *35:905 *803:SE 1.4
397 *35:904 *35:912 0.124283
398 *35:903 *35:911 1.4
399 *35:902 *609:SE 1.4
400 *35:901 *577:SE 1.4
401 *35:900 *35:908 0.0278578
402 *35:898 *35:907 0.0428582
403 *35:897 *35:906 0.497151
404 *35:896 *35:905 0.0150004
405 *35:895 *35:904 1.4
406 *35:894 *35:903 0.497133
407 *35:893 *35:902 0.0492869
408 *35:892 *35:901 0.00642841
409 *35:891 *35:900 0.0342866
410 *35:890 *579:SE 1.4
411 *35:889 *35:898 0.00642873
412 *35:888 *35:897 1.4
413 *35:887 *35:896 0.0514298
414 *35:886 *35:895 3.60433
415 *35:886 *35:894 1.4
416 *35:885 *35:893 0.070716
417 *35:884 *35:892 1.4
418 *35:883 *35:891 1.4
419 *35:882 *35:890 0.0342866
420 *35:881 *35:889 1.4
421 *35:881 *35:888 0.994264
422 *35:880 *35:887 1.4
423 *35:879 *35:886 3.23148
424 *35:878 *35:885 1.4
425 *35:878 *35:884 1.24286
426 *35:877 *35:883 0.248566
427 *35:876 *35:882 0.0557156
428 *35:875 *35:881 1.11855
429 *35:874 *35:880 0.372849
430 *35:874 *35:879 1.4
431 *35:872 *35:878 1.61568
432 *35:871 *35:877 1.4
433 *35:870 *35:876 1.4
434 *35:868 *35:875 1.4
435 *35:867 *35:874 1.24283
436 *35:866 *769:SE 1.4
437 *35:865 *35:872 1.4
438 *35:865 *35:871 1.36718
439 *35:863 *35:870 0.124283
440 *35:861 *578:SE 1.4
441 *35:860 *35:868 0.497155
442 *35:860 *35:867 1.4
443 *35:859 *35:866 0.047144
444 *35:858 *35:865 0.372866
445 *35:857 *611:SE 1.4
446 *35:856 *35:863 1.4
447 *35:855 *610:SE 1.4
448 *35:854 *35:861 0.0599985
449 *35:853 *35:860 1.98862
450 *35:852 *35:859 0.921451
451 *35:851 *35:858 1.4
452 *35:850 *35:857 0.0514298
453 *35:850 *35:856 1.0136
454 *35:849 *35:855 0.00642873
455 *35:848 *35:854 0.304278
456 *35:847 *35:853 1.4
457 *35:846 *35:852 1.4
458 *35:846 *35:851 0.372849
459 *35:845 *35:850 0.35358
460 *35:844 *35:849 0.330008
461 *35:843 *35:848 1.4
462 *35:842 *35:847 0.372849
463 *35:842 *35:846 1.36711
464 *35:840 *35:845 1.4
465 *35:839 *35:844 1.4
466 *35:839 *35:843 0.869991
467 *35:838 *35:842 1.4
468 *35:837 *835:SE 1.4
469 *35:835 *35:840 0.497132
470 *35:835 *35:839 3.10708
471 *35:834 *35:838 0.0257149
472 *35:834 *35:837 0.0578586
473 *35:833 *547:SE 1.4
474 *35:832 *35:835 1.4
475 *35:831 *35:834 2.33577
476 *35:830 *35:833 0.0107145
477 *35:829 *35:832 1.24289
478 *35:828 *35:831 1.4
479 *35:827 *35:830 0.0385724
480 *35:826 *35:829 1.4
481 *35:826 *35:828 0.124283
482 *35:825 *35:827 1.4
483 *35:824 *35:826 2.48566
484 *35:822 *35:825 0.372849
485 *35:821 *35:824 1.4
486 *35:819 *770:SE 1.4
487 *35:818 *35:822 1.4
488 *35:818 *35:821 0.248577
489 *35:817 *836:SE 1.4
490 *35:816 *35:819 0.00857164
491 *35:816 *35:818 0.591443
492 *35:815 *35:817 0.0107145
493 *35:814 *35:816 1.64575
494 *35:812 *35:815 0.0600015
495 *35:811 *35:814 1.4
496 *35:809 *580:SE 1.4
497 *35:808 *35:812 1.4
498 *35:808 *35:811 2.48566
499 *35:806 *612:SE 1.4
500 *35:805 *35:809 0.0407136
501 *35:802 *35:808 0.994264
502 *35:800 *771:SE 1.4
503 *35:799 *35:806 0.059999
504 *35:799 *35:805 1.0607
505 *35:798 *806:SE 1.4
506 *35:796 *804:SE 1.4
507 *35:795 *35:802 1.4
508 *35:794 *548:SE 1.4
509 *35:793 *35:800 0.0107141
510 *35:793 *35:799 3.4328
511 *35:792 *35:798 0.0235713
512 *35:791 *838:SE 1.4
513 *35:790 *35:796 0.0342866
514 *35:790 *35:795 1.75076
515 *35:789 *35:794 0.047142
516 *35:788 *35:793 0.154283
517 *35:787 *35:792 0.0321427
518 *35:786 *35:791 0.0192854
519 *35:784 *35:790 0.610729
520 *35:783 *35:789 0.173568
521 *35:782 *35:788 1.4
522 *35:781 *35:787 1.4
523 *35:780 *35:786 0.00642846
524 *35:779 *805:SE 1.4
525 *35:778 *35:784 1.4
526 *35:777 *35:783 1.4
527 *35:777 *35:782 0.248566
528 *35:776 *35:781 0.248577
529 *35:775 *35:780 1.4
530 *35:774 *35:779 0.0578561
531 *35:773 *35:778 2.98279
532 *35:771 *35:777 0.124283
533 *35:770 *35:776 1.4
534 *35:769 *35:775 0.124283
535 *35:766 *35:774 0.0364279
536 *35:766 *35:773 1.4
537 *35:765 *837:SE 1.4
538 *35:764 *35:771 1.4
539 *35:763 *35:770 0.994269
540 *35:763 *35:769 1.4
541 *35:762 *772:SE 1.4
542 *35:761 *549:SE 1.4
543 *35:760 *35:766 1.33926
544 *35:760 *35:765 0.0171426
545 *35:759 *35:764 0.994268
546 *35:758 *35:763 0.745701
547 *35:757 *35:762 0.00642846
548 *35:756 *35:761 0.0407136
549 *35:755 *35:760 0.15214
550 *35:754 *35:759 1.4
551 *35:753 *35:758 1.4
552 *35:752 *35:757 0.184283
553 *35:751 *35:756 0.385708
554 *35:750 *35:755 1.4
555 *35:750 *35:754 0.124283
556 *35:749 *35:753 0.124283
557 *35:749 *35:752 1.4
558 *35:748 *35:751 1.4
559 *35:748 *35:750 2.11281
560 *35:747 *35:749 0.124283
561 *35:747 *35:748 0.124283
562 *35:746 *35:747 1.4
563 *35:745 *35:746 2.73424
564 *35:743 *35:745 1.4
565 *35:742 *613:SE 1.4
566 *35:741 *35:743 0.248566
567 *35:740 *35:742 0.00214282
568 *35:739 *35:741 1.4
569 *35:738 *35:740 1.4
570 *35:736 *35:739 1.14855
571 *35:736 *35:738 1.4
572 *35:732 *824:SE 1.4
573 *35:730 *35:736 1.53854
574 *35:728 *35 0.0621418
575 *35:727 *790:SE 1.4
576 *35:726 *856:SE 1.4
577 *35:725 *35:732 0.00642841
578 *35:724 *567:SE 1.4
579 *35:721 *35:730 1.4
580 *35:720 *581:SE 1.4
581 *35:719 *35:728 1.4
582 *35:718 *35:727 0.021428
583 *35:717 *35:726 0.0621413
584 *35:716 *35:725 0.010714
585 *35:715 *35:724 0.0599985
586 *35:714 *631:SE 1.4
587 *35:713 *825:SE 1.4
588 *35:711 *35:721 1.4
589 *35:711 *35:720 0.00214282
590 *35:710 *35:719 0.621415
591 *35:709 *35:718 0.248565
592 *35:709 *35:717 0.280707
593 *35:708 *35:716 1.4
594 *35:707 *35:715 0.220709
595 *35:707 *35:714 0.00428561
596 *35:706 *35:713 0.0407133
597 *35:705 *857:SE 1.4
598 *35:703 *35:711 0.047142
599 *35:702 *35:710 1.4
600 *35:700 *35:709 1.4
601 *35:700 *35:708 0.124283
602 *35:699 *35:707 0.021428
603 *35:698 *35:706 0.0407133
604 *35:697 *35:705 0.0578557
605 *35:696 *584:SE 1.4
606 *35:694 *35:703 1.4
607 *35:693 *35:702 2.85852
608 *35:692 *599:SE 1.4
609 *35:691 *35:700 0.248565
610 *35:690 *35:699 1.4
611 *35:689 *35:698 1.4
612 *35:688 *35:697 0.0407133
613 *35:687 *35:696 0.0300007
614 *35:686 *616:SE 1.4
615 *35:685 *35:694 4.47419
616 *35:685 *35:693 1.4
617 *35:684 *35:692 0.0192852
618 *35:683 *35:691 1.4
619 *35:682 *35:690 0.124283
620 *35:681 *35:689 0.248565
621 *35:680 *35:688 1.4
622 *35:679 *35:687 0.0192862
623 *35:678 *35:686 0.0492869
624 *35:675 *35:685 0.124283
625 *35:674 *35:684 0.0171424
626 *35:673 *35:683 0.621413
627 *35:673 *35:682 1.4
628 *35:672 *35:681 1.4
629 *35:671 *35:680 0.124283
630 *35:669 *35:679 1.4
631 *35:668 *35:678 1.33503
632 *35:667 *550:SE 1.4
633 *35:665 *582:SE 1.4
634 *35:664 *35:675 1.4
635 *35:663 *35:674 1.4
636 *35:662 *35:673 0.621413
637 *35:660 *35:672 0.124283
638 *35:660 *35:671 1.4
639 *35:659 *791:SE 1.4
640 *35:658 *35:669 0.248578
641 *35:658 *35:668 1.4
642 *35:655 *35:667 0.0535705
643 *35:654 *614:SE 1.4
644 *35:653 *35:665 0.0557133
645 *35:653 *35:664 0.0792843
646 *35:652 *35:663 0.745696
647 *35:652 *35:662 1.4
648 *35:650 *632:SE 1.4
649 *35:649 *35:660 0.186424
650 *35:649 *35:659 0.0235709
651 *35:647 *35:658 3.23151
652 *35:645 *807:SE 1.4
653 *35:644 *773:SE 1.4
654 *35:643 *35:655 0.786415
655 *35:642 *35:654 0.0535705
656 *35:642 *35:653 1.73568
657 *35:641 *35:652 0.248565
658 *35:640 *568:SE 1.4
659 *35:639 *35:650 0.0342849
660 *35:638 *35:649 0.186424
661 *35:635 *583:SE 1.4
662 *35:634 *35:647 1.4
663 *35:632 *839:SE 1.4
664 *35:631 *35:645 0.047142
665 *35:630 *35:644 0.0428564
666 *35:629 *35:643 1.4
667 *35:628 *35:642 4.15064
668 *35:626 *35:641 1.4
669 *35:625 *35:640 0.0514273
670 *35:624 *35:639 0.340706
671 *35:623 *35:638 1.4
672 *35:622 *600:SE 1.4
673 *35:620 *615:SE 1.4
674 *35:619 *35:635 0.00857164
675 *35:619 *35:634 0.325722
676 *35:618 *551:SE 1.4
677 *35:617 *35:632 0.047142
678 *35:616 *35:631 0.929984
679 *35:616 *35:630 0.906413
680 *35:615 *35:629 0.497132
681 *35:615 *35:628 1.4
682 *35:614 *552:SE 1.4
683 *35:613 *35:626 0.745696
684 *35:612 *35:625 0.265708
685 *35:611 *35:624 1.4
686 *35:611 *35:623 0.248565
687 *35:610 *35:622 0.00428561
688 *35:609 *774:SE 1.4
689 *35:608 *35:620 0.0492869
690 *35:608 *35:619 1.7079
691 *35:607 *35:618 0.0407153
692 *35:606 *35:617 0.0364279
693 *35:605 *35:616 1.4
694 *35:605 *35:615 0.124283
695 *35:604 *35:614 0.00642873
696 *35:603 *35:613 1.4
697 *35:602 *35:612 1.4
698 *35:602 *35:611 0.248565
699 *35:601 *35:610 0.0364277
700 *35:600 *35:609 0.0107145
701 *35:600 *35:608 3.12436
702 *35:599 *35:607 0.720018
703 *35:598 *35:606 1.4
704 *35:598 *35:605 0.497132
705 *35:597 *35:604 0.0257149
706 *35:596 *35:603 0.497131
707 *35:596 *35:602 0.124283
708 *35:595 *35:601 1.4
709 *35:594 *35:600 0.932166
710 *35:593 *35:599 1.4
711 *35:593 *35:598 3.60427
712 *35:592 *35:597 1.4
713 *35:591 *35:596 1.4
714 *35:590 *35:595 0.248565
715 *35:588 *35:594 1.4
716 *35:588 *35:593 0.124289
717 *35:586 *35:592 0.124289
718 *35:585 *35:591 2.11281
719 *35:585 *35:590 1.4
720 *35:584 *808:SE 1.4
721 *35:582 *35:588 0.248578
722 *35:581 *775:SE 1.4
723 *35:580 *35:586 1.4
724 *35:579 *35:585 5.68273
725 *35:579 *35:584 0.0214291
726 *35:578 *840:SE 1.4
727 *35:577 *35:582 1.4
728 *35:576 *35:581 0.0364295
729 *35:576 *35:580 0.0900022
730 *35:575 *35:579 0.407153
731 *35:574 *35:578 0.0492869
732 *35:574 *35:577 0.0128575
733 *35:573 *35:576 0.65573
734 *35:571 *35:575 1.4
735 *35:570 *35:574 0.484298
736 *35:569 *35:573 1.4
737 *35:568 *809:SE 1.4
738 *35:567 *35:571 0.124289
739 *35:567 *35:570 1.4
740 *35:565 *35:569 0.124289
741 *35:564 *35:568 0.0364295
742 *35:563 *35:567 2.48577
743 *35:560 *841:SE 1.4
744 *35:559 *35:565 1.4
745 *35:558 *35:564 0.0407153
746 *35:558 *35:563 1.4
747 *35:557 *811:SE 1.4
748 *35:556 *810:SE 1.4
749 *35:555 *35:560 0.00428582
750 *35:555 *35:559 0.282864
751 *35:554 *35:558 0.870021
752 *35:553 *35:557 0.0257149
753 *35:552 *35:556 0.00642873
754 *35:551 *35:555 0.33858
755 *35:550 *35:554 1.4
756 *35:549 *35:553 1.21074
757 *35:548 *35:552 0.355723
758 *35:547 *35:551 1.4
759 *35:547 *35:550 0.248578
760 *35:546 *35:549 1.4
761 *35:545 *35:548 1.4
762 *35:545 *35:547 3.85295
763 *35:543 *35:546 0.99431
764 *35:543 *35:545 1.74004
765 *35:541 *776:SE 1.4
766 *35:540 *35:543 1.4
767 *35:539 *842:SE 1.4
768 *35:538 *35:541 0.0128575
769 *35:537 *35:540 1.31575
770 *35:537 *35:539 0.0535727
771 *35:536 *35:538 0.00642873
772 *35:535 *35:537 1.17003
773 *35:534 *35:536 1.4
774 *35:533 *35:535 1.4
775 *35:533 *35:534 0.372866
776 *35:531 *35:533 0.124289
777 *35:529 *586:SE 1.4
778 *35:526 *35:531 1.4
779 *35:525 *553:SE 1.4
780 *35:524 *35:529 0.0600013
781 *35:523 *618:SE 1.4
782 *35:522 *617:SE 1.4
783 *35:521 *35:526 0.848592
784 *35:521 *35:525 0.0171433
785 *35:520 *35:524 0.300006
786 *35:519 *35:523 0.0321435
787 *35:518 *35:522 0.0342864
788 *35:517 *35:521 1.63718
789 *35:516 *35:520 1.4
790 *35:515 *35:519 0.263577
791 *35:513 *35:518 0.109288
792 *35:512 *35:517 1.4
793 *35:511 *35:516 0.869982
794 *35:511 *35:515 1.4
795 *35:510 *585:SE 1.4
796 *35:509 *35:513 1.4
797 *35:509 *35:512 2.73427
798 *35:508 *35:511 0.248566
799 *35:507 *35:510 0.0192861
800 *35:506 *35:509 0.124283
801 *35:505 *35:508 1.4
802 *35:504 *35:507 1.12502
803 *35:504 *35:506 1.4
804 *35:503 *35:505 0.124288
805 *35:502 *35:504 0.497153
806 *35:501 *35:503 1.4
807 *35:500 *35:502 1.4
808 *35:498 *35:501 0.994265
809 *35:498 *35:500 1.61568
810 *35:497 *554:SE 1.4
811 *35:496 *35:498 1.4
812 *35:491 *35:497 0.0278577
813 *35:491 *35:496 1.52146
814 *35:490 *777:SE 1.4
815 *35:489 *587:SE 1.4
816 *35:488 *619:SE 1.4
817 *35:487 *843:SE 1.4
818 *35:486 *35:491 1.08859
819 *35:485 *35:490 0.0171432
820 *35:484 *35:489 0.0835732
821 *35:483 *35:488 0.0578584
822 *35:482 *35:487 0.0257148
823 *35:481 *35:486 1.4
824 *35:480 *35:485 0.270006
825 *35:479 *35:484 1.4
826 *35:478 *35:483 0.0364293
827 *35:477 *35:482 0.130717
828 *35:476 *35:481 0.745699
829 *35:476 *35:480 1.4
830 *35:475 *35:479 0.994265
831 *35:475 *35:478 1.4
832 *35:474 *35:477 1.4
833 *35:473 *35:476 0.124283
834 *35:471 *35:475 0.994265
835 *35:470 *35:474 0.994265
836 *35:469 *35:473 1.4
837 *35:468 *778:SE 1.4
838 *35:467 *35:471 1.4
839 *35:466 *35:470 1.4
840 *35:466 *35:469 1.49146
841 *35:464 *35:468 0.0578584
842 *35:463 *35:467 0.621442
843 *35:462 *35:466 0.248577
844 *35:461 *555:SE 1.4
845 *35:460 *35:464 0.0621442
846 *35:459 *35:463 1.4
847 *35:458 *35:462 1.4
848 *35:457 *35:461 0.0342852
849 *35:456 *35:460 1.4
850 *35:455 *35:459 0.869982
851 *35:455 *35:458 0.869982
852 *35:454 *35:457 1.4
853 *35:453 *35:456 0.124283
854 *35:452 *35:455 1.4
855 *35:448 *35:454 0.248566
856 *35:447 *35:453 1.4
857 *35:447 *35:452 1.49146
858 *35:446 *620:SE 1.4
859 *35:445 *588:SE 1.4
860 *35:444 *844:SE 1.4
861 *35:443 *35:448 1.4
862 *35:443 *35:447 0.497142
863 *35:442 *35:446 0.0449993
864 *35:441 *35:445 0.0385708
865 *35:440 *35:444 0.0428565
866 *35:439 *35:443 0.621419
867 *35:438 *35:442 0.0321424
868 *35:437 *35:441 0.0107141
869 *35:435 *35:440 0.0514278
870 *35:434 *35:439 1.4
871 *35:433 *35:438 1.4
872 *35:432 *35:437 1.4
873 *35:431 *812:SE 1.4
874 *35:430 *35:435 1.4
875 *35:429 *35:434 1.86425
876 *35:428 *35:433 0.124283
877 *35:427 *35:432 2.2371
878 *35:425 *35:431 0.0192854
879 *35:424 *35:430 0.124283
880 *35:423 *35:429 1.4
881 *35:422 *35:428 1.4
882 *35:421 *35:427 1.4
883 *35:420 *779:SE 1.4
884 *35:419 *35:425 0.321424
885 *35:418 *35:424 1.4
886 *35:418 *35:423 1.61569
887 *35:417 *35:422 0.124284
888 *35:417 *35:421 0.124284
889 *35:416 *35:420 0.0492849
890 *35:415 *35:419 1.4
891 *35:414 *35:418 1.24284
892 *35:413 *35:417 1.4
893 *35:412 *35:416 0.0921414
894 *35:411 *35:415 1.36711
895 *35:411 *35:414 1.4
896 *35:410 *35:413 1.24283
897 *35:410 *35:412 1.4
898 *35:409 *35:411 0.248566
899 *35:408 *35:410 0.497132
900 *35:407 *35:409 1.4
901 *35:405 *35:408 1.4
902 *35:405 *35:407 1.86426
903 *35:404 *556:SE 1.4
904 *35:402 *35:405 0.621419
905 *35:401 *35:404 0.0192854
906 *35:400 *845:SE 1.4
907 *35:399 *35:402 1.4
908 *35:398 *35:401 0.351423
909 *35:397 *35:400 0.0407136
910 *35:396 *35:399 0.124283
911 *35:396 *35:398 1.4
912 *35:395 *35:397 0.0257139
913 *35:394 *35:396 0.497132
914 *35:394 *35:395 1.4
915 *35:391 *35:394 1.36711
916 *35:390 *814:SE 1.4
917 *35:389 *813:SE 1.4
918 *35:388 *35:391 1.4
919 *35:387 *35:390 0.010714
920 *35:386 *35:389 0.0192852
921 *35:386 *35:388 0.0535701
922 *35:385 *35:387 0.295707
923 *35:385 *35:386 2.3078
924 *35:384 *35:385 1.4
925 *35:383 *35:384 0.869981
926 *35:382 *35:383 1.4
927 *35:379 *35:382 0.372851
928 *35:376 *589:SE 1.4
929 *35:374 *557:SE 1.4
930 *35:373 *35:379 1.4
931 *35:372 *590:SE 1.4
932 *35:371 *622:SE 1.4
933 *35:369 *35:376 0.0599991
934 *35:368 *621:SE 1.4
935 *35:365 *35:374 0.0235711
936 *35:364 *35:373 0.248566
937 *35:363 *35:372 0.126425
938 *35:362 *35:371 0.0021428
939 *35:361 *781:SE 1.4
940 *35:360 *35:369 0.175712
941 *35:359 *35:368 0.0128569
942 *35:358 *780:SE 1.4
943 *35:357 *846:SE 1.4
944 *35:356 *35:365 0.158569
945 *35:356 *35:364 1.4
946 *35:355 *35:363 1.4
947 *35:354 *35:362 0.0257137
948 *35:353 *35:361 0.0321421
949 *35:352 *35:360 1.4
950 *35:351 *35:359 0.0535706
951 *35:350 *35:358 0.00428565
952 *35:349 *35:357 0.0192854
953 *35:349 *35:356 0.214282
954 *35:348 *35:355 2.60995
955 *35:348 *35:354 1.4
956 *35:347 *35:353 0.098569
957 *35:346 *35:352 2.73423
958 *35:346 *35:351 1.4
959 *35:345 *35:350 0.0899986
960 *35:344 *35:349 0.0342852
961 *35:343 *35:348 0.869982
962 *35:343 *35:347 1.4
963 *35:342 *35:346 1.11855
964 *35:342 *35:345 1.4
965 *35:341 *35:344 1.4
966 *35:340 *35:343 0.248566
967 *35:339 *35:342 0.248566
968 *35:339 *35:341 0.497132
969 *35:337 *35:340 1.4
970 *35:336 *35:339 1.4
971 *35:335 *558:SE 1.4
972 *35:333 *35:337 0.124283
973 *35:333 *35:336 5.46845
974 *35:332 *35:335 0.0514273
975 *35:331 *847:SE 1.4
976 *35:329 *35:333 1.4
977 *35:328 *35:332 0.0707126
978 *35:327 *35:331 0.0235709
979 *35:326 *815:SE 1.4
980 *35:325 *35:329 0.248566
981 *35:325 *35:328 1.4
982 *35:324 *35:327 0.248565
983 *35:323 *35:326 0.0321421
984 *35:322 *35:325 0.124283
985 *35:322 *35:324 1.4
986 *35:321 *35:323 0.197138
987 *35:320 *35:322 0.869982
988 *35:320 *35:321 1.4
989 *35:318 *35:320 0.124283
990 *35:316 *816:SE 1.4
991 *35:315 *35:318 1.4
992 *35:313 *848:SE 1.4
993 *35:312 *35:316 0.00642841
994 *35:311 *35:315 2.73422
995 *35:310 *559:SE 1.4
996 *35:309 *35:313 0.0299993
997 *35:308 *35:312 0.280707
998 *35:307 *35:311 1.4
999 *35:306 *35:310 0.0342849
1000 *35:305 *35:309 0.507845
1001 *35:304 *35:308 1.4
1002 *35:304 *35:307 0.497133
1003 *35:302 *35:306 0.010714
1004 *35:301 *35:305 1.4
1005 *35:301 *35:304 0.869982
1006 *35:300 *591:SE 1.4
1007 *35:298 *35:302 1.4
1008 *35:297 *35:301 0.124283
1009 *35:296 *35:300 0.0149996
1010 *35:295 *623:SE 1.4
1011 *35:293 *35:298 0.124283
1012 *35:292 *35:297 1.4
1013 *35:291 *35:296 0.00428561
1014 *35:290 *35:295 0.0578557
1015 *35:289 *782:SE 1.4
1016 *35:288 *35:293 1.4
1017 *35:288 *35:292 0.248565
1018 *35:287 *35:291 1.4
1019 *35:286 *35:290 0.077141
1020 *35:285 *35:289 0.0257137
1021 *35:284 *35:288 0.869979
1022 *35:283 *35:287 2.2371
1023 *35:283 *35:286 1.4
1024 *35:282 *35:285 0.666412
1025 *35:281 *35:284 1.4
1026 *35:280 *35:283 0.621416
1027 *35:279 *35:282 1.4
1028 *35:279 *35:281 0.37285
1029 *35:276 *35:280 1.4
1030 *35:275 *35:279 0.497133
1031 *35:274 *817:SE 1.4
1032 *35:272 *560:SE 1.4
1033 *35:271 *35:276 0.372848
1034 *35:271 *35:275 1.4
1035 *35:270 *35:274 0.0449989
1036 *35:269 *783:SE 1.4
1037 *35:268 *35:272 0.0192852
1038 *35:267 *35:271 2.8585
1039 *35:266 *35:270 0.0364277
1040 *35:265 *35:269 0.0535707
1041 *35:264 *35:268 0.0235709
1042 *35:263 *35:267 1.4
1043 *35:262 *35:266 1.4
1044 *35:261 *35:265 0.0514278
1045 *35:260 *35:264 1.4
1046 *35:259 *35:263 0.124283
1047 *35:259 *35:262 1.36712
1048 *35:258 *35:261 1.4
1049 *35:257 *35:260 0.497133
1050 *35:256 *35:259 1.4
1051 *35:254 *35:258 0.124289
1052 *35:253 *35:257 1.4
1053 *35:253 *35:256 0.745696
1054 *35:251 *592:SE 1.4
1055 *35:250 *35:254 1.4
1056 *35:250 *35:253 0.248566
1057 *35:249 *849:SE 1.4
1058 *35:247 *35:251 0.00857131
1059 *35:246 *35:250 0.62142
1060 *35:245 *35:249 0.0342852
1061 *35:244 *593:SE 1.4
1062 *35:242 *35:247 0.0299996
1063 *35:240 *35:246 1.4
1064 *35:239 *35:245 0.0321424
1065 *35:238 *35:244 0.0278567
1066 *35:237 *625:SE 1.4
1067 *35:236 *35:242 1.4
1068 *35:235 *818:SE 1.4
1069 *35:234 *35:240 0.248578
1070 *35:234 *35:239 1.4
1071 *35:233 *35:238 0.0149998
1072 *35:232 *35:237 0.0235711
1073 *35:231 *35:236 0.124289
1074 *35:229 *35:235 0.0214283
1075 *35:228 *35:234 0.870021
1076 *35:227 *35:233 1.4
1077 *35:226 *35:232 0.0578563
1078 *35:225 *35:231 1.4
1079 *35:224 *624:SE 1.4
1080 *35:223 *35:229 0.237854
1081 *35:222 *35:228 1.4
1082 *35:221 *35:227 1.1186
1083 *35:220 *35:226 1.4
1084 *35:219 *35:225 0.869988
1085 *35:218 *35:224 0.00214283
1086 *35:217 *35:223 1.4
1087 *35:216 *35:222 1.98854
1088 *35:214 *35:221 1.4
1089 *35:213 *35:220 0.124289
1090 *35:211 *35:219 1.4
1091 *35:210 *35:218 0.0407137
1092 *35:209 *35:217 0.745733
1093 *35:209 *35:216 1.4
1094 *35:208 *594:SE 1.4
1095 *35:206 *35:214 1.24284
1096 *35:206 *35:213 1.4
1097 *35:205 *561:SE 1.4
1098 *35:203 *35:211 1.98862
1099 *35:203 *35:210 1.4
1100 *35:202 *35:209 0.124289
1101 *35:201 *35:208 0.0449994
1102 *35:200 *626:SE 1.4
1103 *35:199 *35:206 0.869988
1104 *35:198 *35:205 0.036428
1105 *35:197 *784:SE 1.4
1106 *35:195 *35:203 2.85864
1107 *35:194 *35:202 1.4
1108 *35:193 *35:201 0.0385709
1109 *35:192 *35:200 0.0214283
1110 *35:191 *35:199 1.4
1111 *35:190 *35:198 0.233568
1112 *35:189 *35:197 0.0514278
1113 *35:188 *850:SE 1.4
1114 *35:187 *35:195 1.4
1115 *35:187 *35:194 0.124284
1116 *35:186 *35:193 1.4
1117 *35:185 *35:192 0.0342852
1118 *35:184 *35:191 0.870021
1119 *35:184 *35:190 1.4
1120 *35:183 *35:189 0.659991
1121 *35:182 *35:188 0.0192854
1122 *35:182 *35:187 1.34355
1123 *35:181 *35:186 0.124289
1124 *35:180 *35:185 1.4
1125 *35:179 *35:184 0.870021
1126 *35:179 *35:183 1.4
1127 *35:178 *35:182 1.39069
1128 *35:177 *35:181 1.4
1129 *35:176 *35:180 0.124289
1130 *35:175 *35:179 0.99431
1131 *35:175 *35:178 1.4
1132 *35:174 *35:177 1.11856
1133 *35:174 *35:176 1.4
1134 *35:173 *35:175 0.248578
1135 *35:171 *35:174 0.869988
1136 *35:170 *35:173 1.4
1137 *35:169 *562:SE 1.4
1138 *35:167 *35:171 1.4
1139 *35:166 *35:170 0.994271
1140 *35:165 *35:169 0.00214283
1141 *35:164 *785:SE 1.4
1142 *35:163 *35:167 0.497155
1143 *35:163 *35:166 1.4
1144 *35:162 *35:165 0.0557135
1145 *35:161 *35:164 0.0492848
1146 *35:160 *35:163 0.99431
1147 *35:160 *35:162 1.4
1148 *35:159 *35:161 0.310709
1149 *35:158 *35:160 0.372857
1150 *35:158 *35:159 1.4
1151 *35:157 *35:158 0.869979
1152 *35:156 *35:157 1.4
1153 *35:155 *35:156 1.11855
1154 *35:154 *35:155 1.4
1155 *35:151 *35:154 3.10707
1156 *35:150 *819:SE 1.4
1157 *35:147 *596:SE 1.4
1158 *35:145 *35:151 1.4
1159 *35:144 *35:150 0.0535705
1160 *35:143 *851:SE 1.4
1161 *35:142 *820:SE 1.4
1162 *35:141 *35:147 0.0149996
1163 *35:140 *627:SE 1.4
1164 *35:139 *35:145 0.124283
1165 *35:139 *35:144 1.13569
1166 *35:138 *35:143 0.00428564
1167 *35:137 *35:142 0.0321423
1168 *35:135 *35:141 0.162853
1169 *35:134 *35:140 0.0578561
1170 *35:133 *35:139 1.4
1171 *35:132 *35:138 0.0899984
1172 *35:131 *35:137 1.30283
1173 *35:130 *595:SE 1.4
1174 *35:129 *35:135 1.4
1175 *35:128 *35:134 0.0171425
1176 *35:127 *35:133 1.24283
1177 *35:127 *35:132 1.4
1178 *35:126 *35:131 1.4
1179 *35:125 *35:130 0.0257138
1180 *35:124 *35:129 1.73996
1181 *35:123 *35:128 1.4
1182 *35:122 *35:127 2.73422
1183 *35:122 *35:126 0.497131
1184 *35:119 *35:125 0.342851
1185 *35:119 *35:124 1.4
1186 *35:118 *35:123 0.248565
1187 *35:117 *35:122 1.4
1188 *35:116 *786:SE 1.4
1189 *35:115 *563:SE 1.4
1190 *35:114 *35:119 0.994268
1191 *35:114 *35:118 1.4
1192 *35:112 *35:117 1.24283
1193 *35:111 *35:116 0.0492848
1194 *35:110 *35:115 0.0578561
1195 *35:109 *35:114 0.621417
1196 *35:108 *852:SE 1.4
1197 *35:107 *35:112 1.4
1198 *35:106 *35:111 0.668559
1199 *35:105 *35:110 0.141426
1200 *35:104 *35:109 1.4
1201 *35:103 *35:108 0.023571
1202 *35:101 *35:107 0.248565
1203 *35:101 *35:106 1.4
1204 *35:100 *35:105 1.4
1205 *35:100 *35:104 0.497131
1206 *35:99 *35:103 0.0321423
1207 *35:98 *628:SE 1.4
1208 *35:97 *35:101 0.869979
1209 *35:97 *35:100 0.124283
1210 *35:96 *35:99 1.4
1211 *35:95 *35:98 0.0385705
1212 *35:94 *35:97 1.4
1213 *35:93 *35:96 0.248565
1214 *35:91 *35:95 0.0364277
1215 *35:90 *35:94 1.4914
1216 *35:90 *35:93 1.4
1217 *35:89 *787:SE 1.4
1218 *35:87 *35:91 1.4
1219 *35:86 *35:90 0.37285
1220 *35:85 *35:89 0.0492848
1221 *35:84 *564:SE 1.4
1222 *35:83 *35:87 0.497131
1223 *35:82 *35:86 1.4
1224 *35:81 *35:85 0.0107141
1225 *35:80 *35:84 0.00214282
1226 *35:78 *35:83 1.4
1227 *35:77 *35:82 1.49139
1228 *35:76 *35:81 1.4
1229 *35:75 *35:80 0.0214282
1230 *35:74 *821:SE 1.4
1231 *35:72 *35:78 0.124283
1232 *35:72 *35:77 1.4
1233 *35:71 *35:76 0.124283
1234 *35:70 *35:75 1.4
1235 *35:69 *35:74 0.0428564
1236 *35:68 *853:SE 1.4
1237 *35:67 *35:72 1.24283
1238 *35:67 *35:71 1.4
1239 *35:66 *35:70 0.248565
1240 *35:65 *35:69 0.0299995
1241 *35:64 *35:68 0.0128569
1242 *35:63 *35:67 0.124283
1243 *35:63 *35:66 1.4
1244 *35:62 *35:65 1.4
1245 *35:61 *35:64 0.857127
1246 *35:60 *35:63 2.48567
1247 *35:59 *35:62 0.248565
1248 *35:59 *35:61 1.4
1249 *35:58 *35:60 1.4
1250 *35:57 *35:59 0.497131
1251 *35:57 *35:58 0.124283
1252 *35:53 *35:57 1.4
1253 *35:52 *597:SE 1.4
1254 *35:50 *788:SE 1.4
1255 *35:48 *629:SE 1.4
1256 *35:47 *35:53 0.839986
1257 *35:47 *35:52 0.0428582
1258 *35:46 *854:SE 1.4
1259 *35:44 *35:50 0.0492869
1260 *35:43 *565:SE 1.4
1261 *35:42 *35:48 0.0514298
1262 *35:41 *35:47 3.75866
1263 *35:40 *35:46 0.0321436
1264 *35:39 *822:SE 1.4
1265 *35:38 *35:44 0.145718
1266 *35:38 *35:43 0.0107145
1267 *35:37 *35:42 0.402867
1268 *35:36 *35:41 1.4
1269 *35:35 *35:40 0.0728589
1270 *35:35 *35:39 0.00214291
1271 *35:34 *35:38 0.458583
1272 *35:33 *35:37 1.4
1273 *35:33 *35:36 0.124283
1274 *35:32 *35:35 0.0278578
1275 *35:31 *35:34 1.4
1276 *35:31 *35:33 0.124283
1277 *35:30 *35:32 1.4
1278 *35:30 *35:31 0.497131
1279 *35:27 *35:30 0.248565
1280 *35:25 *855:SE 1.4
1281 *35:24 *789:SE 1.4
1282 *35:23 *35:27 1.4
1283 *35:20 *823:SE 1.4
1284 *35:19 *35:25 0.0600015
1285 *35:18 *35:24 0.0192862
1286 *35:17 *35:23 2.48577
1287 *35:16 *566:SE 1.4
1288 *35:15 *630:SE 1.4
1289 *35:14 *35:20 0.0171433
1290 *35:14 *35:19 0.0192862
1291 *35:13 *35:18 0.107145
1292 *35:12 *35:17 1.4
1293 *35:11 *35:16 0.0342866
1294 *35:10 *35:15 0.0278578
1295 *35:9 *35:14 0.0321436
1296 *35:8 *35:13 1.4
1297 *35:8 *35:12 0.124283
1298 *35:7 *35:11 0.156432
1299 *35:7 *35:10 0.00642873
1300 *35:6 *35:9 1.4
1301 *35:6 *35:8 0.124283
1302 *35:5 *35:7 1.4
1303 *35:5 *35:6 0.124283
1304 *35:4 *35:5 0.621413
1305 *35:3 *35:4 1.4
1306 *35:2 *35:3 0.342865
1307 *35:1 *35:2 0.00428582
1308 *598:SE *35:1 1.4
*END

*D_NET *36 0.000741025

*CONN
*I *763:SI I *C 103.195 29.704 *L 0.00276 *D SDFFRHQX1
*P *36 I *C 110.78 29.725 *L 0

*CAP
1 *36:1 5.1945e-06
2 *36:2 6.2334e-06
3 *36:3 1.0389e-06
4 *36:4 0.000364279
5 *36 0.000364279

*RES
1 *36:4 *36 3.29353
2 *36:3 *36:4 1.4
3 *36:2 *36:3 0.00857122
4 *36:1 *36:2 0.0428561
5 *763:SI *36:1 1.4
*END

*D_NET *37 0.00461959

*CONN
*I *917:C1 I *C 69.481 36.288 *L 0.00176 *D AOI222XL
*P *37 O *C 66.555 0 *L 0
*I *707:A I *C 67.178 36.81 *L 0.0017 *D MX2X1
*I *635:Q O *C 63.162 38.2125 *L 0 *D SDFFRHQX1

*CAP
1 *37:1 1.25789e-06
2 *37:2 6.54102e-06
3 *37:3 5.28313e-06
4 *37:4 9.78678e-05
5 *37:5 0.000139811
6 *37:6 8.7549e-05
7 *37:7 4.19433e-05
8 *37:8 8.7549e-05
9 *37:9 0.00178894
10 *37:10 1.39811e-05
11 *37 0.00178894
12 *37:12 0.000209717
13 *37:13 6.66681e-05
14 *37:14 0.000195736
15 *37:15 6.89323e-05
16 *37:16 4.02524e-06
17 *37:17 2.2642e-06
18 *37:18 8.30206e-06
19 *37:20 4.27682e-06

*RES
1 *37:20 *635:Q 1.4
2 *37:18 *37:20 0.0364277
3 *37:17 *707:A 1.4
4 *37:16 *37:18 0.0342849
5 *37:15 *37:17 0.0192852
6 *37:14 *37:16 1.4
7 *37:13 *37:15 0.567843
8 *37:12 *37:14 1.73996
9 *37:12 *37:13 1.4
10 *37:10 *37:12 0.124283
11 *37:9 *37 15.5975
12 *37:8 *37:10 1.4
13 *37:7 *37:9 1.4
14 *37:6 *37:8 0.745696
15 *37:5 *37:7 0.372848
16 *37:5 *37:6 1.4
17 *37:4 *37:5 0.869979
18 *37:3 *37:4 1.4
19 *37:2 *37:3 0.0449989
20 *37:1 *37:2 0.010714
21 *917:C1 *37:1 1.4
*END

*D_NET *38 0.00199903

*CONN
*I *795:D I *C 71.685 16.825 *L 0.00276 *D SDFFRHQX1
*I *522:A0 I *C 70.679 13.272 *L 0.00271 *D OAI21X1
*I *532:SI I *C 74.8225 10.711 *L 0.00276 *D SDFFRHQX1
*I *965:A0 I *C 70.094 13.93 *L 0.00271 *D OAI21X1
*I *970:A I *C 69.6035 14.5185 *L 0.00157 *D NAND2XL
*I *754:A I *C 70.4605 12.6075 *L 0.00157 *D NAND2XL
*I *531:Q O *C 66.495 10.815 *L 0 *D SDFFRHQX1

*CAP
1 *38:1 4.38256e-06
2 *38:2 1.11999e-05
3 *38:3 6.81732e-06
4 *38:4 1.38036e-05
5 *38:5 1.38036e-05
6 *38:6 0.000169459
7 *38:7 0.000169459
8 *38:8 0.000207054
9 *38:9 0.000138036
10 *38:10 6.90179e-05
11 *38:11 0.000135129
12 *38:12 2.4591e-05
13 *38:13 0.000135129
14 *38:14 1.41216e-05
15 *38:15 1.36346e-05
16 *38:17 2.76072e-05
17 *38:18 3.16518e-06
18 *38:19 6.81732e-06
19 *38:20 4.14107e-05
20 *38:22 6.81732e-06
21 *38:23 6.40341e-05
22 *38:24 1.38036e-05
23 *38:26 1.04695e-05
24 *38:27 0.000141216
25 *38:28 3.62779e-05
26 *38:29 2.92171e-06
27 *38:30 1.38036e-05
28 *38:31 8.47295e-05
29 *38:32 4.30952e-05
30 *38:34 1.38036e-05
31 *38:35 0.000165643
32 *38:36 6.81732e-06
33 *38:37 2.43476e-07
34 *38:38 0.000165643
35 *38:40 6.81732e-06
36 *38:41 2.92171e-06
37 *38:42 6.57384e-06
38 *38:43 5.84342e-06
39 *38:45 2.92171e-06

*RES
1 *38:45 *531:Q 1.4
2 *38:43 *38:45 0.0257137
3 *38:42 *754:A 1.4
4 *38:41 *38:43 0.0257137
5 *38:40 *38:42 0.0578557
6 *38:38 *38:41 1.4
7 *38:37 *38:40 0.0021428
8 *38:36 *970:A 1.4
9 *38:35 *38:38 1.4914
10 *38:34 *38:37 1.4
11 *38:32 *38:36 0.0599985
12 *38:31 *38:35 1.4
13 *38:30 *38:34 0.124284
14 *38:29 *965:A0 1.4
15 *38:28 *38:32 0.319278
16 *38:27 *38:31 0.745696
17 *38:27 *38:30 1.4
18 *38:26 *38:29 0.0257137
19 *38:24 *38:28 1.4
20 *38:23 *38:27 0.497131
21 *38:23 *38:26 0.0664269
22 *38:22 *532:SI 1.4
23 *38:20 *38:24 0.124284
24 *38:20 *38:23 1.4
25 *38:19 *38:22 0.0599985
26 *38:18 *522:A0 1.4
27 *38:17 *38:20 0.248567
28 *38:16 *38:19 1.4
29 *38:15 *38:18 0.0278565
30 *38:14 *38:17 1.4
31 *38:13 *38:16 1.4
32 *38:12 *38:15 0.0921406
33 *38:12 *38:14 0.124283
34 *38:11 *38:13 1.18926
35 *38:10 *38:12 1.4
36 *38:9 *38:11 1.4
37 *38:8 *38:10 0.621419
38 *38:8 *38:9 1.24284
39 *38:7 *38:8 1.4
40 *38:6 *38:7 1.49139
41 *38:5 *38:6 1.4
42 *38:4 *38:5 0.124284
43 *38:3 *38:4 1.4
44 *38:2 *38:3 0.0599985
45 *38:1 *38:2 0.0385705
46 *795:D *38:1 1.4
*END

*D_NET *39 0.00307507

*CONN
*I *531:SI I *C 74.905 11.395 *L 0.00276 *D SDFFRHQX1
*I *958:B0 I *C 71.7465 14.382 *L 0.00282 *D OAI33X1
*I *527:B I *C 71.0395 14.306 *L 0.00167 *D NAND2XL
*I *965:A1 I *C 70.384 14.22 *L 0.00274 *D OAI21X1
*I *702:A0 I *C 70.4165 12.133 *L 0.00271 *D OAI21X1
*I *529:D I *C 71.147 27.5435 *L 0.00276 *D SDFFRHQX1
*I *970:B I *C 70.1835 14.5185 *L 0.00167 *D NAND2XL
*I *530:Q O *C 65.4565 26.3665 *L 0 *D SDFFRHQX1

*CAP
1 *39:1 2.92171e-06
2 *39:2 5.84342e-06
3 *39:3 2.92171e-06
4 *39:4 1.38036e-05
5 *39:5 1.38036e-05
6 *39:6 8.47295e-05
7 *39:7 8.47295e-05
8 *39:8 0.000165643
9 *39:9 0.000165643
10 *39:10 1.41216e-05
11 *39:11 5.77037e-05
12 *39:12 0.000623046
13 *39:13 4.14108e-05
14 *39:14 0.000578003
15 *39:15 1.46085e-06
16 *39:16 6.90179e-05
17 *39:17 2.79622e-05
18 *39:19 3.993e-05
19 *39:20 2.76072e-05
20 *39:21 0.000307584
21 *39:22 4.65038e-05
22 *39:23 0.000101529
23 *39:24 6.54102e-05
24 *39:25 0.000279622
25 *39:26 6.57384e-06
26 *39:27 5.33212e-05
27 *39:28 7.0121e-05
28 *39:29 6.7926e-05
29 *39:30 6.03786e-06
30 *39:32 2.14259e-05
31 *39:33 2.92171e-06
32 *39:34 4.38256e-06
33 *39:35 2.51578e-06
34 *39:36 9.0568e-06
35 *39:37 6.81732e-06
36 *39:41 3.01893e-06

*RES
1 *39:41 *530:Q 1.4
2 *39:37 *970:B 1.4
3 *39:36 *39:41 0.0257137
4 *39:35 *529:D 1.4
5 *39:34 *702:A0 1.4
6 *39:33 *965:A1 1.4
7 *39:32 *39:37 0.0599985
8 *39:30 *39:36 0.0514273
9 *39:29 *39:35 0.021428
10 *39:28 *39:34 0.0385705
11 *39:27 *39:33 0.0257137
12 *39:27 *39:32 0.128568
13 *39:26 *527:B 1.4
14 *39:25 *39:30 1.4
15 *39:24 *39:29 0.557129
16 *39:23 *39:28 0.578557
17 *39:23 *39:27 0.314992
18 *39:22 *39:26 0.0578557
19 *39:21 *39:25 2.48565
20 *39:21 *39:24 1.4
21 *39:20 *39:23 1.4
22 *39:19 *39:22 0.35142
23 *39:17 *39:21 0.248565
24 *39:16 *39:20 0.248567
25 *39:16 *39:19 1.4
26 *39:15 *958:B0 1.4
27 *39:14 *39:17 1.4
28 *39:13 *39:16 0.372851
29 *39:12 *39:15 0.0128568
30 *39:12 *39:14 5.08488
31 *39:11 *39:13 1.4
32 *39:11 *39:12 0.383562
33 *39:10 *39:11 0.124283
34 *39:9 *39:10 1.4
35 *39:8 *39:9 1.4914
36 *39:7 *39:8 1.4
37 *39:6 *39:7 0.745696
38 *39:5 *39:6 1.4
39 *39:4 *39:5 0.124284
40 *39:3 *39:4 1.4
41 *39:2 *39:3 0.0257137
42 *39:1 *39:2 0.0257137
43 *531:SI *39:1 1.4
*END

*D_NET *40 0.00335684

*CONN
*I *536:SI I *C 99.6785 11.42 *L 0.00276 *D SDFFRHQX1
*I *640:B0 I *C 95.6235 11.1075 *L 0.00266 *D AOI32X1
*I *535:Q O *C 87.139 11.3415 *L 0 *D SDFFRHQX1
*I *643:AN I *C 74.1285 11.0395 *L 0.00174 *D NOR2BX1
*I *526:B I *C 73.676 12.8655 *L 0.00284 *D NAND2BX1
*I *968:A I *C 73.8305 12.237 *L 0.00259 *D NOR3X1
*I *524:C I *C 73.611 12.706 *L 0.00289 *D NAND3BX1

*CAP
1 *40:1 3.01217e-06
2 *40:2 3.01217e-06
3 *40:4 2.52559e-05
4 *40:5 2.52559e-05
5 *40:6 0.00027266
6 *40:7 0.00027266
7 *40:8 8.06335e-05
8 *40:9 8.06335e-05
9 *40:10 0.000327192
10 *40:11 8.17979e-05
11 *40:12 0.000245394
12 *40:13 6.97434e-05
13 *40:14 1.34389e-05
14 *40:15 7.29872e-05
15 *40:16 1.34389e-05
16 *40:17 3.24388e-06
17 *40:18 6.81649e-05
18 *40:20 0.000684123
19 *40:21 4.5646e-05
20 *40:22 0.000629761
21 *40:23 4.58777e-05
22 *40:24 6.25733e-05
23 *40:25 2.76072e-05
24 *40:26 2.31706e-07
25 *40:27 6.42776e-05
26 *40:28 3.06779e-05
27 *40:29 1.38036e-05
28 *40:31 1.70433e-06
29 *40:32 3.26257e-05
30 *40:33 5.59994e-06
31 *40:34 1.85041e-05
32 *40:36 6.33037e-06
33 *40:37 1.21738e-06
34 *40:38 2.31302e-05
35 *40:41 4.62604e-06

*RES
1 *40:41 *524:C 1.4
2 *40:38 *40:41 0.0407133
3 *40:37 *968:A 1.4
4 *40:36 *526:B 1.4
5 *40:34 *40:38 0.162853
6 *40:33 *40:37 0.010714
7 *40:32 *40:36 0.0557129
8 *40:31 *643:AN 1.4
9 *40:29 *40:34 1.4
10 *40:28 *40:33 0.0385705
11 *40:28 *40:32 0.231423
12 *40:27 *40:31 0.0149996
13 *40:26 *535:Q 1.4
14 *40:25 *40:29 0.124284
15 *40:25 *40:28 1.4
16 *40:24 *40:27 0.550701
17 *40:23 *40:26 0.00214282
18 *40:22 *40:25 0.124284
19 *40:22 *40:24 1.4
20 *40:21 *40:23 0.422136
21 *40:20 *40:22 5.59274
22 *40:20 *40:21 1.4
23 *40:18 *40:20 0.621413
24 *40:17 *640:B0 1.4
25 *40:16 *40:18 1.4
26 *40:15 *40:17 0.0299995
27 *40:14 *40:16 0.124284
28 *40:13 *40:15 0.64499
29 *40:12 *40:14 1.4
30 *40:11 *40:13 1.4
31 *40:10 *40:12 2.23709
32 *40:10 *40:11 0.745696
33 *40:9 *40:10 1.4
34 *40:8 *40:9 0.745702
35 *40:7 *40:8 1.4
36 *40:6 *40:7 2.48565
37 *40:5 *40:6 1.4
38 *40:4 *40:5 0.233568
39 *40:3 *40:4 1.4
40 *40:2 *40:3 1.4
41 *40:1 *40:2 0.0278567
42 *536:SI *40:1 1.4
*END

*D_NET *41 0.003904

*CONN
*I *526:AN I *C 74.546 12.8655 *L 0.00178 *D NAND2BX1
*I *524:AN I *C 74.771 12.706 *L 0.00178 *D NAND3BX1
*I *968:B I *C 74.1205 12.237 *L 0.00272 *D NOR3X1
*I *530:D I *C 72.4165 26.6565 *L 0.00276 *D SDFFRHQX1
*I *720:AN I *C 73.5825 12.0075 *L 0.00178 *D NAND3BX1
*I *534:Q O *C 85.6065 11.309 *L 0 *D SDFFRHQX1
*I *535:SI I *C 95.549 11.9215 *L 0.00276 *D SDFFRHQX1

*CAP
1 *41:1 6.33037e-06
2 *41:2 1.41216e-05
3 *41:3 1.67998e-05
4 *41:4 4.62604e-06
5 *41:5 4.38256e-06
6 *41:7 2.76072e-05
7 *41:8 2.76072e-05
8 *41:9 0.000692663
9 *41:10 0.000678541
10 *41:11 1.85042e-05
11 *41:12 8.38867e-05
12 *41:13 0.000438729
13 *41:14 1.41216e-05
14 *41:15 8.38867e-05
15 *41:16 0.000438729
16 *41:18 9.73903e-06
17 *41:19 6.03786e-06
18 *41:20 1.34389e-05
19 *41:21 1.21738e-06
20 *41:22 2.76072e-05
21 *41:23 9.0568e-06
22 *41:24 1.34389e-05
23 *41:25 1.21738e-06
24 *41:26 2.76072e-05
25 *41:27 3.01893e-06
26 *41:28 0.000109064
27 *41:30 1.21738e-06
28 *41:32 0.000572585
29 *41:33 4.62604e-06
30 *41:34 0.000463521
31 *41:35 3.35973e-05
32 *41:36 3.40866e-06
33 *41:37 5.32923e-06
34 *41:38 3.35973e-05
35 *41:40 5.32923e-06
36 *41:43 4.1707e-06
37 *41:44 2.31706e-07
38 *41:45 4.1707e-06
39 *41:46 2.31706e-07

*RES
1 *41:46 *535:SI 1.4
2 *41:45 *534:Q 1.4
3 *41:44 *41:46 0.00214282
4 *41:43 *41:45 0.0385708
5 *41:42 *41:44 1.4
6 *41:41 *41:43 1.4
7 *41:40 *41:42 1.4
8 *41:38 *41:41 1.4
9 *41:37 *41:40 0.0492849
10 *41:36 *720:AN 1.4
11 *41:35 *41:38 0.310709
12 *41:34 *41:37 1.4
13 *41:33 *41:36 0.0299993
14 *41:32 *41:35 1.4
15 *41:32 *41:34 4.22561
16 *41:30 *41:33 0.010714
17 *41:28 *41:32 0.994261
18 *41:27 *530:D 1.4
19 *41:26 *41:30 1.4
20 *41:25 *968:B 1.4
21 *41:24 *41:28 1.4
22 *41:23 *41:27 0.0257137
23 *41:22 *41:26 0.248567
24 *41:21 *41:25 0.010714
25 *41:20 *41:24 0.124284
26 *41:19 *41:23 0.0514273
27 *41:18 *41:22 1.4
28 *41:17 *41:21 1.4
29 *41:16 *41:20 1.4
30 *41:15 *41:19 1.4
31 *41:14 *41:18 0.0857122
32 *41:14 *41:17 1.4
33 *41:13 *41:16 3.97706
34 *41:12 *41:15 0.745696
35 *41:11 *41:14 0.0385705
36 *41:11 *41:13 1.4
37 *41:10 *41:12 1.4
38 *41:9 *41:11 0.124283
39 *41:9 *41:10 5.96557
40 *41:8 *41:9 1.4
41 *41:7 *41:8 0.248567
42 *41:5 *41:7 1.4
43 *41:4 *524:AN 1.4
44 *41:3 *41:5 0.0385705
45 *41:3 *41:4 0.0407133
46 *41:2 *41:3 0.0685697
47 *41:1 *41:2 0.0557129
48 *526:AN *41:1 1.4
*END

*D_NET *42 0.00318117

*CONN
*I *958:A0 I *C 69.7165 14.672 *L 0.00265 *D OAI33X1
*I *959:B I *C 71.011 14.109 *L 0.0028 *D NOR2BX1
*I *720:B I *C 72.7125 12.0075 *L 0.00276 *D NAND3BX1
*I *524:B I *C 73.901 12.706 *L 0.00276 *D NAND3BX1
*I *761:A I *C 72.59 10.694 *L 0.00273 *D INVX1
*I *964:A I *C 74.1145 12.812 *L 0.00178 *D AND2X1
*I *533:Q O *C 76.5675 10.5625 *L 0 *D SDFFRHQX1
*I *641:B I *C 87.75 11.207 *L 0.00184 *D MX2X1
*I *534:SI I *C 94.0165 11.889 *L 0.00276 *D SDFFRHQX1

*CAP
1 *42:1 1.46085e-06
2 *42:2 1.46085e-06
3 *42:4 1.5339e-05
4 *42:5 1.5339e-05
5 *42:6 0.000124232
6 *42:7 0.000124232
7 *42:8 1.41216e-05
8 *42:9 8.47295e-05
9 *42:10 6.90179e-05
10 *42:11 7.06079e-05
11 *42:12 6.90179e-05
12 *42:13 1.38036e-05
13 *42:14 2.19128e-06
14 *42:15 6.90179e-05
15 *42:16 7.30427e-06
16 *42:17 6.90179e-05
17 *42:18 2.94606e-05
18 *42:19 5.11299e-06
19 *42:20 0.000138036
20 *42:21 4.38256e-06
21 *42:22 9.69033e-05
22 *42:24 0.000124232
23 *42:25 9.49555e-06
24 *42:26 9.0086e-06
25 *42:27 3.40866e-06
26 *42:28 6.67123e-05
27 *42:29 4.23648e-05
28 *42:30 1.04695e-05
29 *42:31 4.62604e-06
30 *42:33 2.67823e-06
31 *42:34 9.9825e-05
32 *42:35 9.73903e-07
33 *42:38 0.000518992
34 *42:39 6.40341e-05
35 *42:41 0.000818917
36 *42:42 6.57384e-06
37 *42:43 0.000299926
38 *42:44 2.50242e-05
39 *42:46 6.71946e-06
40 *42:47 2.61827e-05
41 *42:48 1.08902e-05
42 *42:49 1.15853e-06
43 *42:50 4.1707e-06

*RES
1 *42:50 *534:SI 1.4
2 *42:49 *641:B 1.4
3 *42:48 *42:50 0.0385708
4 *42:47 *42:49 0.0107141
5 *42:46 *42:48 0.0621419
6 *42:44 *42:47 0.231425
7 *42:43 *42:46 1.4
8 *42:42 *533:Q 1.4
9 *42:41 *42:44 1.4
10 *42:41 *42:43 2.73422
11 *42:39 *42:42 0.0578557
12 *42:38 *42:41 4.72275
13 *42:35 *964:A 1.4
14 *42:34 *42:39 0.505702
15 *42:34 *42:38 1.4
16 *42:33 *761:A 1.4
17 *42:31 *524:B 1.4
18 *42:30 *42:35 0.00857122
19 *42:29 *42:34 0.372848
20 *42:28 *42:33 0.0235709
21 *42:27 *720:B 1.4
22 *42:26 *42:31 0.0407133
23 *42:25 *42:30 0.0835694
24 *42:24 *42:29 1.4
25 *42:22 *42:28 0.563558
26 *42:22 *42:27 0.0299993
27 *42:21 *42:26 0.0385705
28 *42:20 *42:25 1.4
29 *42:20 *42:24 1.11855
30 *42:19 *959:B 1.4
31 *42:18 *42:22 0.259279
32 *42:17 *42:21 1.4
33 *42:17 *42:20 0.124284
34 *42:16 *42:19 0.0449989
35 *42:15 *42:18 1.4
36 *42:15 *42:17 0.497135
37 *42:14 *42:16 0.0192852
38 *42:13 *42:15 0.124284
39 *42:12 *42:14 1.4
40 *42:11 *42:13 1.4
41 *42:10 *42:12 0.621419
42 *42:9 *42:11 0.621413
43 *42:9 *42:10 1.4
44 *42:8 *42:9 0.124283
45 *42:7 *42:8 1.4
46 *42:6 *42:7 1.11855
47 *42:5 *42:6 1.4
48 *42:4 *42:5 0.134997
49 *42:3 *42:4 1.4
50 *42:2 *42:3 1.4
51 *42:1 *42:2 0.0128568
52 *958:A0 *42:1 1.4
*END

*D_NET *43 0.00137709

*CONN
*I *796:SI I *C 74.7955 18.4135 *L 0.00276 *D SDFFRHQX1
*I *966:A1 I *C 70.164 18.4025 *L 0.00162 *D OA21X1
*I *525:A I *C 70.033 18.38 *L 0.00173 *D OR2X1
*I *760:A I *C 69.552 19.377 *L 0.00273 *D CLKINVX1
*I *969:B I *C 70.117 17.139 *L 0.00167 *D NAND2XL
*I *795:Q O *C 64.725 16.535 *L 0 *D SDFFRHQX1

*CAP
1 *43:1 5.84342e-06
2 *43:2 3.40866e-05
3 *43:3 2.82432e-05
4 *43:4 0.000220857
5 *43:5 0.000248464
6 *43:6 2.87301e-05
7 *43:7 2.76072e-05
8 *43:8 3.62779e-05
9 *43:9 1.85041e-05
10 *43:10 6.33037e-06
11 *43:11 6.15993e-05
12 *43:12 2.31302e-05
13 *43:15 8.69208e-05
14 *43:16 4.62604e-06
15 *43:17 3.89561e-06
16 *43:18 2.26432e-05
17 *43:21 0.000248464
18 *43:22 0.000248464
19 *43:23 6.81732e-06
20 *43:24 1.11999e-05
21 *43:25 4.38256e-06

*RES
1 *43:25 *795:Q 1.4
2 *43:24 *43:25 0.0385705
3 *43:23 *43:24 0.0599985
4 *43:22 *43:23 1.4
5 *43:21 *43:22 2.23711
6 *43:18 *43:21 1.4
7 *43:17 *969:B 1.4
8 *43:16 *760:A 1.4
9 *43:15 *43:18 0.199281
10 *43:15 *43:17 0.0342849
11 *43:12 *43:16 0.0407133
12 *43:11 *43:15 0.531416
13 *43:11 *525:A 1.4
14 *43:10 *966:A1 1.4
15 *43:9 *43:12 0.162853
16 *43:8 *43:11 0.010714
17 *43:8 *43:10 0.0557129
18 *43:7 *43:9 1.4
19 *43:6 *43:8 0.252851
20 *43:5 *43:7 0.248567
21 *43:5 *43:6 1.4
22 *43:4 *43:5 1.98854
23 *43:3 *43:4 1.4
24 *43:2 *43:3 0.248565
25 *43:1 *43:2 0.0514273
26 *796:SI *43:1 1.4
*END

*D_NET *44 0.00266512

*CONN
*I *795:SI I *C 73.135 17.115 *L 0.00276 *D SDFFRHQX1
*I *528:A I *C 70.5595 19.785 *L 0.00157 *D NAND2XL
*I *735:A I *C 70.301 20.8165 *L 0.00177 *D OR3X1
*I *966:A0 I *C 69.889 18.4175 *L 0.00157 *D OA21X1
*I *529:Q O *C 64.187 27.2535 *L 0 *D SDFFRHQX1
*I *967:B I *C 70.718 15.1405 *L 0.00272 *D NOR3X1
*I *969:A I *C 69.537 17.139 *L 0.00157 *D NAND2XL

*CAP
1 *44:1 4.38256e-06
2 *44:2 1.11999e-05
3 *44:3 6.81732e-06
4 *44:4 1.38036e-05
5 *44:5 1.38036e-05
6 *44:6 0.000127094
7 *44:7 0.000127094
8 *44:8 0.000138036
9 *44:9 0.000151839
10 *44:10 3.89561e-06
11 *44:11 4.14107e-05
12 *44:12 6.57384e-06
13 *44:13 1.41216e-05
14 *44:14 2.76072e-05
15 *44:15 2.67823e-06
16 *44:16 4.62604e-05
17 *44:17 7.03645e-05
18 *44:19 3.33562e-05
19 *44:20 0.000289875
20 *44:21 0.000134155
21 *44:22 1.21738e-06
22 *44:23 0.000289875
23 *44:24 7.06079e-06
24 *44:25 5.67298e-05
25 *44:27 0.000347607
26 *44:29 5.52143e-05
27 *44:30 0.000350123
28 *44:31 4.14108e-05
29 *44:32 1.38036e-05
30 *44:33 2.51578e-06
31 *44:34 0.00010299
32 *44:35 5.59994e-06
33 *44:37 0.000108103
34 *44:38 9.49555e-06
35 *44:39 5.11299e-06
36 *44:40 3.89561e-06

*RES
1 *44:40 *969:A 1.4
2 *44:39 *967:B 1.4
3 *44:38 *44:40 0.0342849
4 *44:37 *44:39 0.0449989
5 *44:35 *44:38 0.0492845
6 *44:34 *44:37 0.906406
7 *44:33 *529:Q 1.4
8 *44:32 *44:35 1.4
9 *44:31 *44:34 1.4
10 *44:30 *44:33 0.021428
11 *44:29 *44:32 0.124284
12 *44:29 *44:31 0.372851
13 *44:27 *44:30 3.04278
14 *44:25 *44:29 1.4
15 *44:24 *966:A0 1.4
16 *44:23 *44:27 1.4
17 *44:22 *735:A 1.4
18 *44:21 *44:25 0.499274
19 *44:21 *44:24 0.0621413
20 *44:20 *44:23 2.60996
21 *44:19 *44:22 0.010714
22 *44:17 *44:21 0.619271
23 *44:16 *44:20 1.4
24 *44:16 *44:19 0.28285
25 *44:15 *528:A 1.4
26 *44:14 *44:17 1.4
27 *44:13 *44:16 0.124283
28 *44:12 *44:15 0.0235709
29 *44:11 *44:14 0.248567
30 *44:11 *44:13 1.4
31 *44:10 *44:12 0.0342849
32 *44:9 *44:11 0.124284
33 *44:9 *44:10 1.4
34 *44:8 *44:9 1.24284
35 *44:7 *44:8 1.4
36 *44:6 *44:7 1.11854
37 *44:5 *44:6 1.4
38 *44:4 *44:5 0.124284
39 *44:3 *44:4 1.4
40 *44:2 *44:3 0.0599985
41 *44:1 *44:2 0.0385705
42 *795:SI *44:1 1.4
*END

*D_NET *45 0.00247189

*CONN
*I *529:SI I *C 72.597 27.8335 *L 0.00276 *D SDFFRHQX1
*I *668:A I *C 68.2695 37.0955 *L 0.0017 *D MX2X1
*I *707:B I *C 68.338 36.81 *L 0.00184 *D MX2X1
*I *740:A I *C 67.881 38.763 *L 0.0017 *D MX2X1
*I *794:Q O *C 63.646 41.4555 *L 0 *D SDFFRHQX1

*CAP
1 *45:1 2.51578e-06
2 *45:2 2.51578e-06
3 *45:4 0.000459884
4 *45:5 0.000459884
5 *45:6 0.000209717
6 *45:7 0.000209717
7 *45:9 1.39811e-05
8 *45:10 1.43399e-05
9 *45:11 0.000223698
10 *45:12 7.29575e-06
11 *45:13 1.05663e-05
12 *45:14 9.00648e-05
13 *45:15 0.000209717
14 *45:16 1.25789e-06
15 *45:17 2.2642e-06
16 *45:18 9.63542e-05
17 *45:19 0.000225414
18 *45:22 6.28944e-06
19 *45:23 0.000225917
20 *45:25 5.03155e-07

*RES
1 *45:25 *794:Q 1.4
2 *45:23 *45:25 0.00428561
3 *45:22 *740:A 1.4
4 *45:19 *45:23 1.91995
5 *45:18 *45:22 0.0535701
6 *45:17 *707:B 1.4
7 *45:16 *668:A 1.4
8 *45:15 *45:19 1.4
9 *45:14 *45:18 0.767124
10 *45:13 *45:17 0.0192852
11 *45:12 *45:16 0.010714
12 *45:11 *45:15 1.86424
13 *45:11 *45:14 1.4
14 *45:10 *45:13 0.0707126
15 *45:10 *45:12 0.0514273
16 *45:9 *45:11 0.124283
17 *45:9 *45:10 1.4
18 *45:8 *45:9 1.4
19 *45:7 *45:8 1.4
20 *45:6 *45:7 1.86424
21 *45:5 *45:6 1.4
22 *45:4 *45:5 3.91705
23 *45:3 *45:4 1.4
24 *45:2 *45:3 1.4
25 *45:1 *45:2 0.021428
26 *529:SI *45:1 1.4
*END

*D_NET *46 0.00248896

*CONN
*I *794:SI I *C 72.056 42.0355 *L 0.00276 *D SDFFRHQX1
*I *683:A I *C 70.0325 57.469 *L 0.0017 *D MX2X1
*I *706:B I *C 69.699 56.7025 *L 0.00184 *D MX2X1
*I *739:A I *C 68.6745 57.04 *L 0.0017 *D MX2X1
*I *793:Q O *C 63.996 56.8355 *L 0 *D SDFFRHQX1

*CAP
1 *46:1 5.03155e-07
2 *46:2 7.04417e-06
3 *46:3 6.54102e-06
4 *46:4 1.39811e-05
5 *46:5 1.39811e-05
6 *46:6 0.000648898
7 *46:7 0.000648898
8 *46:8 0.000116621
9 *46:9 0.000116621
10 *46:10 8.26734e-05
11 *46:11 0.000119496
12 *46:12 3.68229e-05
13 *46:13 1.45776e-05
14 *46:15 7.28881e-05
15 *46:16 4.75135e-07
16 *46:17 0.000291552
17 *46:18 2.61324e-06
18 *46:19 1.63921e-05
19 *46:20 0.000233242
20 *46:21 2.13811e-06
21 *46:22 2.06684e-05
22 *46:23 6.65189e-06
23 *46:25 4.27621e-06
24 *46:26 9.02756e-06
25 *46:28 2.37567e-06

*RES
1 *46:28 *793:Q 1.4
2 *46:26 *46:28 0.0214285
3 *46:25 *739:A 1.4
4 *46:23 *46:26 0.0599998
5 *46:22 *46:25 0.0385713
6 *46:21 *706:B 1.4
7 *46:20 *46:23 1.4
8 *46:19 *46:22 0.147857
9 *46:18 *46:21 0.0192856
10 *46:17 *46:20 1.98862
11 *46:17 *46:19 1.4
12 *46:16 *46:18 0.0042857
13 *46:15 *46:17 0.497155
14 *46:15 *46:16 1.4
15 *46:13 *46:15 0.124289
16 *46:12 *683:A 1.4
17 *46:11 *46:13 1.4
18 *46:11 *46:12 0.332141
19 *46:10 *46:11 0.745711
20 *46:9 *46:10 1.4
21 *46:8 *46:9 0.99431
22 *46:7 *46:8 1.4
23 *46:6 *46:7 5.59274
24 *46:5 *46:6 1.4
25 *46:4 *46:5 0.124283
26 *46:3 *46:4 1.4
27 *46:2 *46:3 0.0557129
28 *46:1 *46:2 0.00428561
29 *794:SI *46:1 1.4
*END

*D_NET *47 0.0020687

*CONN
*I *793:SI I *C 72.406 57.4155 *L 0.00276 *D SDFFRHQX1
*I *705:B I *C 67.854 61.4675 *L 0.00184 *D MX2X1
*I *738:A I *C 66.568 61.483 *L 0.0017 *D MX2X1
*I *792:Q O *C 60.4085 60.059 *L 0 *D SDFFRHQX1
*I *681:A I *C 66.802 63.621 *L 0.0017 *D MX2X1

*CAP
1 *47:1 2.37567e-06
2 *47:2 9.02756e-06
3 *47:3 6.65189e-06
4 *47:4 1.45776e-05
5 *47:5 1.45776e-05
6 *47:6 0.000151568
7 *47:7 0.000151568
8 *47:8 0.00024782
9 *47:9 0.00024782
10 *47:10 1.37789e-05
11 *47:11 4.7751e-05
12 *47:12 4.0624e-05
13 *47:13 5.83105e-05
14 *47:14 6.65189e-06
15 *47:15 0.00036444
16 *47:17 3.46848e-05
17 *47:18 0.00030613
18 *47:19 0.000138502
19 *47:20 3.30219e-05
20 *47:21 0.000103104
21 *47:22 7.12702e-07
22 *47:23 3.56351e-05
23 *47:24 1.45776e-05
24 *47:26 2.61324e-06
25 *47:27 1.45776e-05
26 *47:29 1.66297e-06
27 *47:30 3.80108e-06
28 *47:31 2.13811e-06

*RES
1 *47:31 *681:A 1.4
2 *47:30 *47:31 0.0192856
3 *47:29 *47:30 0.0149999
4 *47:27 *47:29 1.4
5 *47:26 *792:Q 1.4
6 *47:24 *47:27 0.124289
7 *47:23 *47:26 0.0235713
8 *47:22 *738:A 1.4
9 *47:21 *47:24 1.4
10 *47:20 *47:23 0.297856
11 *47:19 *47:22 0.00642855
12 *47:19 *47:21 0.929996
13 *47:18 *47:20 1.4
14 *47:17 *47:19 0.312856
15 *47:15 *47:18 2.61006
16 *47:15 *47:17 1.4
17 *47:14 *705:B 1.4
18 *47:13 *47:15 0.497155
19 *47:12 *47:14 0.0599998
20 *47:11 *47:13 1.4
21 *47:11 *47:12 0.306427
22 *47:10 *47:11 0.124285
23 *47:9 *47:10 1.4
24 *47:8 *47:9 2.11291
25 *47:7 *47:8 1.4
26 *47:6 *47:7 1.36714
27 *47:5 *47:6 1.4
28 *47:4 *47:5 0.124289
29 *47:3 *47:4 1.4
30 *47:2 *47:3 0.0599998
31 *47:1 *47:2 0.0214285
32 *793:SI *47:1 1.4
*END

*D_NET *48 0.00344031

*CONN
*I *680:A I *C 46.2035 64.99 *L 0.0017 *D MX2X1
*I *737:A I *C 45.981 62.0795 *L 0.0017 *D MX2X1
*I *704:B I *C 47.5805 62.2255 *L 0.00184 *D MX2X1
*I *792:SI I *C 68.8185 60.639 *L 0.00276 *D SDFFRHQX1
*I *791:Q O *C 41.3795 60.029 *L 0 *D SDFFRHQX1

*CAP
1 *48:1 2.41032e-06
2 *48:2 7.95407e-06
3 *48:3 5.54375e-06
4 *48:4 1.40624e-05
5 *48:5 1.40624e-05
6 *48:6 0.000145825
7 *48:7 0.000182462
8 *48:8 7.23097e-07
9 *48:9 9.18333e-05
10 *48:11 8.43742e-05
11 *48:12 5.59195e-05
12 *48:13 0.00114055
13 *48:14 0.000224998
14 *48:15 0.00105618
15 *48:16 4.29038e-05
16 *48:17 0.000224998
17 *48:18 3.30219e-05
18 *48:19 4.89296e-05
19 *48:20 6.98994e-06
20 *48:21 3.56351e-05
21 *48:22 6.02581e-06
22 *48:23 9.6413e-06
23 *48:24 2.61324e-06
24 *48:26 2.65136e-06

*RES
1 *48:26 *791:Q 1.4
2 *48:24 *792:SI 1.4
3 *48:23 *48:26 0.0235709
4 *48:22 *704:B 1.4
5 *48:21 *48:24 0.0235713
6 *48:20 *48:23 0.0621413
7 *48:19 *48:22 0.0535701
8 *48:18 *48:21 0.297856
9 *48:17 *48:20 1.4
10 *48:16 *48:19 0.381419
11 *48:15 *48:18 1.4
12 *48:14 *48:17 1.98852
13 *48:13 *48:16 1.4
14 *48:13 *48:15 9.07298
15 *48:12 *48:14 1.4
16 *48:11 *48:13 0.745696
17 *48:9 *48:12 0.497131
18 *48:9 *48:11 1.4
19 *48:8 *737:A 1.4
20 *48:7 *48:9 0.319278
21 *48:7 *48:8 0.00642841
22 *48:6 *48:7 1.2964
23 *48:5 *48:6 1.4
24 *48:4 *48:5 0.124283
25 *48:3 *48:4 1.4
26 *48:2 *48:3 0.0492845
27 *48:1 *48:2 0.021428
28 *680:A *48:1 1.4
*END

*D_NET *49 0.00222733

*CONN
*I *745:A I *C 42.0045 58.857 *L 0.0017 *D MX2X1
*I *703:B I *C 43.301 59.24 *L 0.00184 *D MX2X1
*I *791:SI I *C 49.7895 60.609 *L 0.00276 *D SDFFRHQX1
*I *682:A I *C 41.3695 60.642 *L 0.0017 *D MX2X1
*I *790:Q O *C 38.6655 55.2435 *L 0 *D SDFFRHQX1

*CAP
1 *49:1 4.82065e-06
2 *49:2 1.10875e-05
3 *49:3 6.26684e-06
4 *49:4 7.03118e-05
5 *49:5 7.03118e-05
6 *49:6 2.48263e-05
7 *49:7 3.06111e-05
8 *49:8 3.13342e-06
9 *49:9 2.65136e-06
10 *49:10 2.81247e-05
11 *49:12 2.81247e-05
12 *49:13 5.59195e-05
13 *49:14 9.78592e-05
14 *49:15 4.19396e-05
15 *49:16 0.000281247
16 *49:17 0.000126561
17 *49:18 0.000281247
18 *49:19 0.000253123
19 *49:20 6.98994e-06
20 *49:21 3.35035e-05
21 *49:22 0.000126561
22 *49:23 9.6413e-06
23 *49:24 3.56728e-05
24 *49:25 0.000293577
25 *49:26 2.65136e-06
26 *49:27 2.16929e-06
27 *49:28 0.000295988
28 *49:31 2.41032e-06

*RES
1 *49:31 *790:Q 1.4
2 *49:28 *49:31 0.021428
3 *49:27 *682:A 1.4
4 *49:26 *791:SI 1.4
5 *49:25 *49:28 2.60994
6 *49:24 *49:27 0.0192852
7 *49:23 *49:26 0.0235709
8 *49:22 *49:25 1.4
9 *49:21 *49:24 0.29785
10 *49:20 *49:23 0.0621413
11 *49:19 *49:22 1.11854
12 *49:19 *49:21 1.4
13 *49:18 *49:20 1.4
14 *49:17 *49:19 1.11854
15 *49:16 *49:18 2.48565
16 *49:15 *49:17 1.4
17 *49:14 *49:16 1.4
18 *49:14 *49:15 0.372848
19 *49:13 *49:14 0.497131
20 *49:12 *49:13 1.4
21 *49:10 *49:12 0.248565
22 *49:9 *703:B 1.4
23 *49:8 *49:10 1.4
24 *49:7 *49:9 0.0235709
25 *49:7 *49:8 0.0278565
26 *49:6 *49:7 0.220709
27 *49:5 *49:6 1.4
28 *49:4 *49:5 0.621413
29 *49:3 *49:4 1.4
30 *49:2 *49:3 0.0557129
31 *49:1 *49:2 0.0428561
32 *745:A *49:1 1.4
*END

*D_NET *50 0.00238894

*CONN
*I *790:SI I *C 47.0755 55.8235 *L 0.00276 *D SDFFRHQX1
*I *686:B I *C 44.0215 42.9535 *L 0.00184 *D MX2X1
*I *719:A I *C 42.9305 42.506 *L 0.0017 *D MX2X1
*I *679:A I *C 41.382 42.4715 *L 0.0017 *D MX2X1
*I *789:Q O *C 39.831 40.2065 *L 0 *D SDFFRHQX1

*CAP
1 *50:1 2.41032e-06
2 *50:2 2.41032e-06
3 *50:3 1.40624e-05
4 *50:4 1.40624e-05
5 *50:5 0.000663237
6 *50:6 0.000663237
7 *50:7 0.000165525
8 *50:8 0.000206906
9 *50:9 2.36325e-05
10 *50:10 0.000124143
11 *50:11 2.79064e-05
12 *50:12 1.00564e-06
13 *50:13 0.000151731
14 *50:14 4.27396e-06
15 *50:15 7.79369e-06
16 *50:16 7.54228e-07
17 *50:17 6.89686e-05
18 *50:19 6.78805e-06
19 *50:20 3.51973e-06
20 *50:21 0.000114643
21 *50:23 2.7655e-06
22 *50:24 0.000114643
23 *50:27 2.26268e-06
24 *50:28 2.26268e-06

*RES
1 *50:28 *789:Q 1.4
2 *50:27 *50:28 0.0192862
3 *50:26 *50:27 1.4
4 *50:24 *50:26 1.4
5 *50:23 *679:A 1.4
6 *50:21 *50:24 0.977167
7 *50:20 *50:23 0.023572
8 *50:19 *719:A 1.4
9 *50:17 *50:21 1.4
10 *50:16 *50:20 0.00642873
11 *50:15 *50:19 0.0578586
12 *50:14 *686:B 1.4
13 *50:13 *50:17 0.621413
14 *50:13 *50:16 1.4
15 *50:12 *50:15 0.00857164
16 *50:11 *50:14 0.0364295
17 *50:10 *50:13 0.745696
18 *50:10 *50:12 1.4
19 *50:9 *50:11 0.201433
20 *50:8 *50:10 0.372848
21 *50:8 *50:9 1.4
22 *50:7 *50:8 1.49139
23 *50:6 *50:7 1.4
24 *50:5 *50:6 5.71721
25 *50:4 *50:5 1.4
26 *50:3 *50:4 0.124283
27 *50:2 *50:3 1.4
28 *50:1 *50:2 0.021428
29 *790:SI *50:1 1.4
*END

*D_NET *51 0.00196842

*CONN
*I *789:SI I *C 48.241 40.7865 *L 0.00276 *D SDFFRHQX1
*I *701:B I *C 46.7205 35.859 *L 0.00184 *D MX2X1
*I *732:A I *C 45.5025 35.656 *L 0.0017 *D MX2X1
*I *788:Q O *C 41.791 33.246 *L 0 *D SDFFRHQX1
*I *678:A I *C 45.8225 31.1965 *L 0.0017 *D MX2X1

*CAP
1 *51:1 2.26268e-06
2 *51:2 0.000325072
3 *51:3 0.00032281
4 *51:4 6.89686e-05
5 *51:5 0.000137937
6 *51:6 7.51714e-05
7 *51:7 6.89686e-05
8 *51:8 8.09538e-05
9 *51:9 0.000123191
10 *51:10 5.78241e-06
11 *51:11 7.08974e-05
12 *51:12 5.8327e-05
13 *51:14 6.03382e-06
14 *51:15 0.000179318
15 *51:17 1.37937e-05
16 *51:18 0.000165525
17 *51:19 0.000102072
18 *51:20 2.01127e-06
19 *51:21 0.000102072
20 *51:22 7.79369e-06
21 *51:23 1.37937e-05
22 *51:24 5.78241e-06
23 *51:25 1.37937e-05
24 *51:27 1.00564e-06
25 *51:28 8.0451e-06
26 *51:29 7.03946e-06

*RES
1 *51:29 *678:A 1.4
2 *51:28 *51:29 0.0600015
3 *51:27 *51:28 0.00857164
4 *51:25 *51:27 1.4
5 *51:24 *788:Q 1.4
6 *51:23 *51:25 0.124283
7 *51:22 *51:24 0.0492869
8 *51:21 *51:23 1.4
9 *51:20 *51:22 0.0171433
10 *51:19 *51:21 0.870021
11 *51:18 *51:20 1.4
12 *51:17 *51:19 1.4
13 *51:15 *51:18 1.49139
14 *51:15 *51:17 0.124283
15 *51:14 *732:A 1.4
16 *51:12 *51:15 1.4
17 *51:11 *51:14 0.0514298
18 *51:10 *701:B 1.4
19 *51:9 *51:12 0.497155
20 *51:9 *51:11 0.552871
21 *51:8 *51:10 0.0492869
22 *51:7 *51:9 1.4
23 *51:6 *51:8 0.64073
24 *51:5 *51:7 0.621413
25 *51:5 *51:6 1.4
26 *51:4 *51:5 0.621413
27 *51:3 *51:4 1.4
28 *51:2 *51:3 2.7515
29 *51:1 *51:2 0.0192862
30 *789:SI *51:1 1.4
*END

*D_NET *52 0.00357028

*CONN
*I *731:A I *C 47.5265 20.492 *L 0.0017 *D MX2X1
*I *700:B I *C 49.039 17.428 *L 0.00184 *D MX2X1
*I *788:SI I *C 50.201 33.826 *L 0.00276 *D SDFFRHQX1
*I *787:Q O *C 42.3685 17.8115 *L 0 *D SDFFRHQX1
*I *677:A I *C 48.528 11.521 *L 0.0017 *D MX2X1

*CAP
1 *52:1 5.80536e-06
2 *52:2 8.18029e-06
3 *52:3 2.37492e-06
4 *52:4 9.7747e-05
5 *52:5 9.7747e-05
6 *52:6 1.53051e-05
7 *52:7 0.000137745
8 *52:8 6.51647e-05
9 *52:9 0.000143815
10 *52:10 6.51647e-05
11 *52:11 4.88735e-05
12 *52:12 2.74435e-05
13 *52:13 0.000702181
14 *52:14 0.000374697
15 *52:15 6.06925e-06
16 *52:16 0.000707963
17 *52:17 0.000336711
18 *52:18 0.000325823
19 *52:20 5.78241e-06
20 *52:21 0.000336711
21 *52:22 1.3194e-06
22 *52:24 1.62912e-05
23 *52:25 7.38865e-06
24 *52:26 1.62912e-05
25 *52:27 6.06925e-06
26 *52:28 3.43044e-06
27 *52:30 5.80536e-06
28 *52:31 2.37492e-06

*RES
1 *52:31 *677:A 1.4
2 *52:30 *52:31 0.0192854
3 *52:28 *52:30 0.0278566
4 *52:27 *787:Q 1.4
5 *52:26 *52:28 1.4
6 *52:25 *52:27 0.0492848
7 *52:24 *52:26 0.124283
8 *52:22 *52:25 0.0107141
9 *52:21 *52:24 1.4
10 *52:20 *788:SI 1.4
11 *52:18 *52:22 1.4
12 *52:17 *52:21 2.73424
13 *52:16 *52:20 0.0492869
14 *52:15 *700:B 1.4
15 *52:14 *52:18 2.48565
16 *52:14 *52:17 1.4
17 *52:13 *52:16 5.85861
18 *52:12 *52:15 0.0492848
19 *52:11 *52:14 0.372848
20 *52:10 *52:13 1.4
21 *52:9 *52:12 0.173568
22 *52:9 *52:11 1.4
23 *52:8 *52:10 0.497131
24 *52:7 *52:9 0.994268
25 *52:7 *52:8 1.4
26 *52:6 *52:7 0.124283
27 *52:5 *52:6 1.4
28 *52:4 *52:5 0.745696
29 *52:3 *52:4 1.4
30 *52:2 *52:3 0.0192854
31 *52:1 *52:2 0.047142
32 *731:A *52:1 1.4
*END

*D_NET *53 0.00314471

*CONN
*I *787:SI I *C 50.7785 18.3915 *L 0.00276 *D SDFFRHQX1
*I *699:B I *C 46.7365 11.144 *L 0.00184 *D MX2X1
*I *730:A I *C 44.9135 12.534 *L 0.0017 *D MX2X1
*I *676:A I *C 45.897 8.2375 *L 0.0017 *D MX2X1
*I *786:Q O *C 37.3795 12.146 *L 0 *D SDFFRHQX1

*CAP
1 *53:1 6.06925e-06
2 *53:2 0.000387376
3 *53:3 0.000381307
4 *53:4 0.000228076
5 *53:5 0.000342115
6 *53:6 1.05552e-06
7 *53:7 0.000114038
8 *53:8 6.33313e-06
9 *53:9 7.23032e-05
10 *53:10 5.2776e-06
11 *53:11 8.23306e-05
12 *53:13 4.22208e-06
13 *53:14 5.80536e-06
14 *53:15 0.000488735
15 *53:17 6.51647e-05
16 *53:18 0.00042357
17 *53:19 0.000230895
18 *53:20 2.48047e-05
19 *53:21 0.00023459
20 *53:22 3.0874e-05
21 *53:23 3.69432e-06
22 *53:24 6.06925e-06

*RES
1 *53:24 *786:Q 1.4
2 *53:23 *676:A 1.4
3 *53:22 *53:24 0.0492848
4 *53:21 *53:23 0.0299995
5 *53:20 *53:22 0.201425
6 *53:19 *53:21 1.87497
7 *53:18 *53:20 1.4
8 *53:17 *53:19 1.4
9 *53:15 *53:18 3.23135
10 *53:15 *53:17 0.497131
11 *53:14 *730:A 1.4
12 *53:13 *53:15 1.4
13 *53:11 *53:14 0.047142
14 *53:11 *53:13 0.0342851
15 *53:10 *699:B 1.4
16 *53:9 *53:11 0.587132
17 *53:8 *53:10 0.0428564
18 *53:7 *53:9 1.4
19 *53:6 *53:8 0.00857127
20 *53:5 *53:7 0.869979
21 *53:5 *53:6 1.4
22 *53:4 *53:5 1.73996
23 *53:3 *53:4 1.4
24 *53:2 *53:3 3.09637
25 *53:1 *53:2 0.0492848
26 *787:SI *53:1 1.4
*END

*D_NET *54 0.00398889

*CONN
*I *786:SI I *C 45.7895 12.726 *L 0.00276 *D SDFFRHQX1
*I *729:A I *C 23.4615 11.7485 *L 0.0017 *D MX2X1
*I *698:B I *C 21.9075 10.173 *L 0.00184 *D MX2X1
*I *675:A I *C 20.211 7.947 *L 0.0017 *D MX2X1
*I *785:Q O *C 18.0095 11.311 *L 0 *D SDFFRHQX1

*CAP
1 *54:1 6.06925e-06
2 *54:2 2.71797e-05
3 *54:3 2.11104e-05
4 *54:4 0.0012484
5 *54:5 0.00132669
6 *54:6 2.92539e-05
7 *54:7 7.82883e-05
8 *54:8 3.51047e-05
9 *54:9 0.000109384
10 *54:10 5.85079e-06
11 *54:11 0.000222075
12 *54:13 7.63146e-07
13 *54:14 0.000111928
14 *54:16 9.3946e-05
15 *54:17 0.00020355
16 *54:18 1.52629e-06
17 *54:19 0.000109604
18 *54:20 4.32449e-06
19 *54:21 0.000169673
20 *54:22 2.7982e-06
21 *54:23 0.000175524
22 *54:25 5.85079e-06

*RES
1 *54:25 *785:Q 1.4
2 *54:23 *54:25 0.049285
3 *54:22 *675:A 1.4
4 *54:21 *54:23 1.42927
5 *54:20 *54:22 0.0235711
6 *54:19 *54:21 1.4
7 *54:18 *54:20 0.012857
8 *54:17 *54:19 0.870021
9 *54:17 *54:18 1.4
10 *54:16 *54:17 0.745733
11 *54:14 *54:16 1.4
12 *54:13 *698:B 1.4
13 *54:11 *54:14 0.942844
14 *54:11 *54:13 0.00642848
15 *54:10 *729:A 1.4
16 *54:9 *54:11 0.921415
17 *54:8 *54:10 0.049285
18 *54:7 *54:9 1.4
19 *54:6 *54:8 0.246425
20 *54:5 *54:7 0.621444
21 *54:5 *54:6 1.4
22 *54:4 *54:5 9.56982
23 *54:3 *54:4 1.4
24 *54:2 *54:3 0.171425
25 *54:1 *54:2 0.0492848
26 *786:SI *54:1 1.4
*END

*D_NET *55 0.00264225

*CONN
*I *697:B I *C 14.27 11.1825 *L 0.00184 *D MX2X1
*I *728:A I *C 14.9005 13.126 *L 0.0017 *D MX2X1
*I *785:SI I *C 26.4195 11.891 *L 0.00276 *D SDFFRHQX1
*I *784:Q O *C 11.914 14.4455 *L 0 *D SDFFRHQX1
*I *674:A I *C 11.492 8.87 *L 0.0017 *D MX2X1

*CAP
1 *55:1 4.32449e-06
2 *55:2 5.34202e-06
3 *55:3 1.01753e-06
4 *55:4 3.13153e-05
5 *55:5 3.13153e-05
6 *55:6 4.42625e-05
7 *55:7 9.97177e-05
8 *55:8 0.000119814
9 *55:9 0.000627257
10 *55:10 6.2578e-05
11 *55:11 1.78067e-06
12 *55:12 0.000627257
13 *55:13 0.000156577
14 *55:15 7.65253e-06
15 *55:16 0.000187892
16 *55:17 1.37218e-05
17 *55:18 4.57888e-06
18 *55:19 3.13153e-05
19 *55:20 6.06925e-06
20 *55:21 1.0684e-05
21 *55:22 0.000279057
22 *55:24 6.10517e-06
23 *55:25 0.000280838
24 *55:27 1.78067e-06

*RES
1 *55:27 *674:A 1.4
2 *55:25 *55:27 0.0149998
3 *55:24 *784:Q 1.4
4 *55:22 *55:25 2.35068
5 *55:21 *55:24 0.0514278
6 *55:20 *785:SI 1.4
7 *55:19 *55:22 1.4
8 *55:18 *55:21 0.0385709
9 *55:17 *55:20 0.0492848
10 *55:16 *55:19 0.248578
11 *55:16 *55:18 1.4
12 *55:15 *55:17 0.0621417
13 *55:13 *55:16 1.24289
14 *55:12 *55:15 1.4
15 *55:11 *728:A 1.4
16 *55:10 *55:13 1.4
17 *55:9 *55:12 4.97154
18 *55:8 *55:11 0.0149998
19 *55:8 *55:10 0.527135
20 *55:7 *55:9 1.4
21 *55:7 *55:8 0.467136
22 *55:6 *55:7 0.372852
23 *55:5 *55:6 1.4
24 *55:4 *55:5 0.248578
25 *55:3 *55:4 1.4
26 *55:2 *55:3 0.00857131
27 *55:1 *55:2 0.036428
28 *697:B *55:1 1.4
*END

*D_NET *56 0.00286487

*CONN
*I *784:SI I *C 20.324 15.0255 *L 0.00276 *D SDFFRHQX1
*I *742:A I *C 14.592 23.831 *L 0.0017 *D MX2X1
*I *696:B I *C 13.144 18.409 *L 0.00184 *D MX2X1
*I *673:A I *C 9.0045 16.775 *L 0.0017 *D MX2X1
*I *783:Q O *C 11.6175 25.5425 *L 0 *D SDFFRHQX1

*CAP
1 *56:1 6.10517e-06
2 *56:2 1.62804e-05
3 *56:3 1.01753e-05
4 *56:4 0.00026618
5 *56:5 0.00026618
6 *56:6 7.37708e-05
7 *56:7 7.37708e-05
8 *56:8 4.6973e-05
9 *56:9 0.000125261
10 *56:10 0.000364021
11 *56:11 0.000297496
12 *56:12 0.000460177
13 *56:13 8.82705e-05
14 *56:14 0.000219207
15 *56:15 9.33582e-05
16 *56:16 2.7982e-06
17 *56:17 9.08144e-05
18 *56:18 5.08764e-06
19 *56:19 0.000156577
20 *56:21 2.54382e-06
21 *56:22 1.17016e-05
22 *56:23 0.000156577
23 *56:25 6.61393e-06
24 *56:26 6.10517e-06
25 *56:28 1.24647e-05
26 *56:29 6.35955e-06

*RES
1 *56:29 *783:Q 1.4
2 *56:28 *56:29 0.0535707
3 *56:26 *56:28 0.0514278
4 *56:25 *673:A 1.4
5 *56:23 *56:26 1.4
6 *56:22 *56:25 0.0557135
7 *56:21 *696:B 1.4
8 *56:19 *56:23 1.24289
9 *56:18 *56:22 0.0428565
10 *56:17 *56:21 0.0214283
11 *56:16 *742:A 1.4
12 *56:15 *56:19 1.4
13 *56:14 *56:18 1.4
14 *56:13 *56:17 0.743561
15 *56:12 *56:16 0.0235711
16 *56:12 *56:15 0.786417
17 *56:11 *56:14 1.74004
18 *56:11 *56:13 1.4
19 *56:10 *56:12 3.06638
20 *56:9 *56:11 0.621444
21 *56:9 *56:10 1.4
22 *56:8 *56:9 0.372866
23 *56:7 *56:8 1.4
24 *56:6 *56:7 0.62142
25 *56:5 *56:6 1.4
26 *56:4 *56:5 2.11291
27 *56:3 *56:4 1.4
28 *56:2 *56:3 0.0857131
29 *56:1 *56:2 0.0514278
30 *784:SI *56:1 1.4
*END

*D_NET *57 0.00215145

*CONN
*I *783:SI I *C 20.0275 26.1225 *L 0.00276 *D SDFFRHQX1
*I *726:A I *C 16.869 35.4105 *L 0.0017 *D MX2X1
*I *695:B I *C 15.566 34.376 *L 0.00184 *D MX2X1
*I *782:Q O *C 12.965 36.21 *L 0 *D SDFFRHQX1
*I *672:A I *C 10.9525 34.33 *L 0.0017 *D MX2X1

*CAP
1 *57:1 6.49335e-06
2 *57:2 1.2727e-05
3 *57:3 6.23362e-06
4 *57:4 0.00010367
5 *57:5 0.00010367
6 *57:6 0.000421808
7 *57:7 0.000421808
8 *57:8 5.92401e-05
9 *57:9 0.00013329
10 *57:10 5.42844e-05
11 *57:11 0.00020734
12 *57:12 5.92194e-05
13 *57:13 5.19468e-07
14 *57:14 0.00023696
15 *57:15 4.93495e-06
16 *57:16 3.11681e-06
17 *57:17 9.58419e-05
18 *57:18 0.00010367
19 *57:20 2.59734e-06
20 *57:21 9.89587e-05
21 *57:22 1.81814e-06
22 *57:24 3.11681e-06
23 *57:25 5.97388e-06
24 *57:27 4.15574e-06

*RES
1 *57:27 *672:A 1.4
2 *57:25 *57:27 0.0342849
3 *57:24 *782:Q 1.4
4 *57:22 *57:25 0.0149996
5 *57:21 *57:24 0.0257137
6 *57:20 *695:B 1.4
7 *57:18 *57:22 1.4
8 *57:17 *57:21 0.790695
9 *57:16 *57:20 0.021428
10 *57:15 *726:A 1.4
11 *57:14 *57:18 0.869982
12 *57:14 *57:17 1.4
13 *57:13 *57:16 0.00428561
14 *57:12 *57:15 0.0407133
15 *57:11 *57:14 1.11855
16 *57:11 *57:13 1.4
17 *57:10 *57:12 0.447846
18 *57:9 *57:11 0.621416
19 *57:9 *57:10 1.4
20 *57:8 *57:9 0.497133
21 *57:7 *57:8 1.4
22 *57:6 *57:7 3.47992
23 *57:5 *57:6 1.4
24 *57:4 *57:5 0.869982
25 *57:3 *57:4 1.4
26 *57:2 *57:3 0.0514273
27 *57:1 *57:2 0.0535701
28 *783:SI *57:1 1.4
*END

*D_NET *58 0.00196809

*CONN
*I *782:SI I *C 21.375 36.79 *L 0.00276 *D SDFFRHQX1
*I *743:A I *C 18.1345 42.471 *L 0.0017 *D MX2X1
*I *694:B I *C 16.8195 42.02 *L 0.00184 *D MX2X1
*I *781:Q O *C 13.56 43.587 *L 0 *D SDFFRHQX1
*I *671:A I *C 11.6095 42.2935 *L 0.0017 *D MX2X1

*CAP
1 *58:1 3.11681e-06
2 *58:2 8.57122e-06
3 *58:3 5.45441e-06
4 *58:4 0.00016291
5 *58:5 0.00016291
6 *58:6 0.000300512
7 *58:7 0.00033194
8 *58:8 3.09083e-05
9 *58:9 5.19468e-07
10 *58:10 7.40501e-05
11 *58:12 0.00013329
12 *58:13 5.42844e-05
13 *58:14 5.92401e-05
14 *58:15 6.18167e-05
15 *58:16 1.50646e-05
16 *58:17 7.53229e-06
17 *58:18 1.50646e-05
18 *58:20 0.00010367
19 *58:21 0.00019253
20 *58:22 1.19478e-05
21 *58:23 8.88601e-05
22 *58:24 1.58438e-05
23 *58:25 5.50636e-05
24 *58:26 3.89601e-06
25 *58:27 6.20764e-05
26 *58:29 7.01282e-06

*RES
1 *58:29 *671:A 1.4
2 *58:27 *58:29 0.0578557
3 *58:26 *781:Q 1.4
4 *58:25 *58:27 0.454275
5 *58:24 *58:26 0.0321421
6 *58:23 *58:25 1.4
7 *58:22 *58:24 0.098569
8 *58:21 *58:23 0.745699
9 *58:21 *58:22 1.4
10 *58:20 *58:21 0.869982
11 *58:18 *58:20 1.4
12 *58:17 *694:B 1.4
13 *58:16 *58:18 0.124283
14 *58:15 *58:17 0.0621413
15 *58:14 *58:16 1.4
16 *58:13 *58:15 0.447846
17 *58:12 *58:14 0.497133
18 *58:12 *58:13 1.4
19 *58:10 *58:12 0.621416
20 *58:9 *743:A 1.4
21 *58:8 *58:10 1.4
22 *58:7 *58:9 0.00428561
23 *58:7 *58:8 0.254994
24 *58:6 *58:7 2.47923
25 *58:5 *58:6 1.4
26 *58:4 *58:5 1.36712
27 *58:3 *58:4 1.4
28 *58:2 *58:3 0.0449989
29 *58:1 *58:2 0.0257137
30 *782:SI *58:1 1.4
*END

*D_NET *59 0.00264975

*CONN
*I *781:SI I *C 21.97 44.167 *L 0.00276 *D SDFFRHQX1
*I *724:A I *C 18.476 55.7615 *L 0.0017 *D MX2X1
*I *693:B I *C 16.5655 54.628 *L 0.00184 *D MX2X1
*I *780:Q O *C 13.4725 56.614 *L 0 *D SDFFRHQX1
*I *670:A I *C 11.1305 54.5105 *L 0.0017 *D MX2X1

*CAP
1 *59:1 3.89601e-06
2 *59:2 7.01282e-06
3 *59:3 3.11681e-06
4 *59:4 5.92401e-05
5 *59:5 5.92401e-05
6 *59:6 0.000546239
7 *59:7 0.000546239
8 *59:8 0.00012442
9 *59:9 0.000217735
10 *59:10 5.86204e-05
11 *59:11 0.000264393
12 *59:12 6.18324e-05
13 *59:13 1.87371e-06
14 *59:14 0.000171078
15 *59:15 3.21208e-06
16 *59:16 7.76251e-06
17 *59:17 0.000119917
18 *59:19 5.8888e-06
19 *59:20 0.000104928
20 *59:21 1.5525e-05
21 *59:23 5.35346e-07
22 *59:24 0.00012442
23 *59:26 0.00012442
24 *59:27 7.22717e-06
25 *59:28 9.10088e-06
26 *59:29 1.87371e-06

*RES
1 *59:29 *670:A 1.4
2 *59:28 *59:29 0.0149998
3 *59:27 *59:28 0.0578562
4 *59:26 *59:27 1.4
5 *59:24 *59:26 0.994265
6 *59:23 *780:Q 1.4
7 *59:21 *59:24 1.4
8 *59:20 *59:23 0.00428565
9 *59:19 *693:B 1.4
10 *59:17 *59:21 0.124284
11 *59:17 *59:20 0.835701
12 *59:16 *59:19 0.0471421
13 *59:15 *724:A 1.4
14 *59:14 *59:17 1.4
15 *59:13 *59:16 0.0149998
16 *59:12 *59:15 0.0257139
17 *59:11 *59:14 1.36711
18 *59:11 *59:13 1.4
19 *59:10 *59:12 0.469278
20 *59:9 *59:11 0.745698
21 *59:9 *59:10 1.4
22 *59:8 *59:9 0.994265
23 *59:7 *59:8 1.4
24 *59:6 *59:7 4.47419
25 *59:5 *59:6 1.4
26 *59:4 *59:5 0.497133
27 *59:3 *59:4 1.4
28 *59:2 *59:3 0.0257137
29 *59:1 *59:2 0.0321421
30 *781:SI *59:1 1.4
*END

*D_NET *60 0.00213073

*CONN
*I *780:SI I *C 21.8825 57.194 *L 0.00276 *D SDFFRHQX1
*I *741:A I *C 17.3605 63.111 *L 0.0017 *D MX2X1
*I *692:B I *C 15.0035 63.05 *L 0.00184 *D MX2X1
*I *779:Q O *C 11.9185 64.5975 *L 0 *D SDFFRHQX1
*I *669:A I *C 10.1935 63.4895 *L 0.0017 *D MX2X1

*CAP
1 *60:1 5.35346e-07
2 *60:2 0.000315319
3 *60:3 0.000314783
4 *60:4 0.00024884
5 *60:5 0.00037326
6 *60:6 1.87371e-06
7 *60:7 0.000279945
8 *60:8 7.49484e-06
9 *60:9 1.33836e-06
10 *60:10 0.00024884
11 *60:11 5.62113e-06
12 *60:12 5.08579e-06
13 *60:13 8.16402e-05
14 *60:14 9.3315e-05
15 *60:16 3.74742e-06
16 *60:17 8.77967e-05
17 *60:18 2.22169e-05
18 *60:20 6.15648e-06
19 *60:21 2.75703e-05
20 *60:23 5.35346e-06

*RES
1 *60:23 *669:A 1.4
2 *60:21 *60:23 0.0428565
3 *60:20 *779:Q 1.4
4 *60:18 *60:21 0.177854
5 *60:17 *60:20 0.0492849
6 *60:16 *692:B 1.4
7 *60:14 *60:18 1.4
8 *60:13 *60:17 0.653561
9 *60:12 *60:16 0.0299995
10 *60:11 *741:A 1.4
11 *60:10 *60:14 0.745698
12 *60:10 *60:13 1.4
13 *60:9 *60:12 0.0107141
14 *60:8 *60:11 0.0449993
15 *60:7 *60:10 1.24283
16 *60:7 *60:9 1.4
17 *60:6 *60:8 0.0149998
18 *60:5 *60:7 0.994265
19 *60:5 *60:6 1.4
20 *60:4 *60:5 1.98853
21 *60:3 *60:4 1.4
22 *60:2 *60:3 2.51996
23 *60:1 *60:2 0.00428565
24 *780:SI *60:1 1.4
*END

*D_NET *61 0.00334345

*CONN
*I *779:SI I *C 20.3285 65.1775 *L 0.00276 *D SDFFRHQX1
*I *723:A I *C 13.512 75.912 *L 0.0017 *D MX2X1
*I *691:B I *C 11.58 80.872 *L 0.00184 *D MX2X1
*I *778:Q O *C 9.272 78.592 *L 0 *D SDFFRHQX1
*I *652:A I *C 8.123 81.173 *L 0.0017 *D MX2X1

*CAP
1 *61:1 6.15648e-06
2 *61:2 0.000576568
3 *61:3 0.000570411
4 *61:4 0.00037326
5 *61:5 0.000404365
6 *61:6 4.01509e-06
7 *61:7 3.1105e-05
8 *61:8 5.35346e-06
9 *61:9 0.000139595
10 *61:10 1.33836e-06
11 *61:11 0.000139595
12 *61:13 7.68152e-05
13 *61:14 0.000199719
14 *61:15 0.000127647
15 *61:16 0.00015363
16 *61:17 0.000134227
17 *61:18 7.63253e-06
18 *61:19 3.07261e-05
19 *61:20 6.57977e-06
20 *61:21 1.47387e-05
21 *61:22 0.000137386
22 *61:24 7.10615e-06
23 *61:25 0.000137386
24 *61:27 1.5363e-05
25 *61:28 1.5363e-05
26 *61:29 6.31658e-06
27 *61:30 1.36859e-05
28 *61:31 7.36934e-06

*RES
1 *61:31 *652:A 1.4
2 *61:30 *61:31 0.0600013
3 *61:29 *61:30 0.0514297
4 *61:28 *61:29 1.4
5 *61:27 *61:28 0.124283
6 *61:25 *61:27 1.4
7 *61:24 *778:Q 1.4
8 *61:22 *61:25 1.1186
9 *61:21 *61:24 0.0578584
10 *61:20 *691:B 1.4
11 *61:19 *61:22 1.4
12 *61:18 *61:21 0.0621442
13 *61:17 *61:20 0.0535726
14 *61:16 *61:19 0.248566
15 *61:16 *61:18 1.4
16 *61:15 *61:17 1.03931
17 *61:14 *61:16 0.994265
18 *61:14 *61:15 1.4
19 *61:13 *61:14 0.621415
20 *61:11 *61:13 1.4
21 *61:10 *723:A 1.4
22 *61:9 *61:11 1.11856
23 *61:8 *61:10 0.0107141
24 *61:7 *61:9 1.4
25 *61:6 *61:8 0.0321424
26 *61:5 *61:7 0.248566
27 *61:5 *61:6 1.4
28 *61:4 *61:5 2.98279
29 *61:3 *61:4 1.4
30 *61:2 *61:3 4.56636
31 *61:1 *61:2 0.0492849
32 *779:SI *61:1 1.4
*END

*D_NET *62 0.00258889

*CONN
*I *667:A I *C 8.6085 91.4475 *L 0.0017 *D MX2X1
*I *690:B I *C 11.7065 90.5365 *L 0.00184 *D MX2X1
*I *744:A I *C 13.0965 87.8745 *L 0.0017 *D MX2X1
*I *778:SI I *C 17.682 79.172 *L 0.00276 *D SDFFRHQX1
*I *777:Q O *C 11.2035 86.617 *L 0 *D SDFFRHQX1

*CAP
1 *62:1 2.8951e-06
2 *62:2 1.57914e-05
3 *62:3 1.28963e-05
4 *62:4 0.00015363
5 *62:5 0.00015363
6 *62:6 3.05301e-05
7 *62:7 0.000152651
8 *62:8 1.5363e-05
9 *62:9 0.000213711
10 *62:10 1.5363e-05
11 *62:11 9.21782e-05
12 *62:12 9.15904e-05
13 *62:13 4.73743e-06
14 *62:14 0.000322624
15 *62:15 1.5363e-05
16 *62:16 6.84296e-06
17 *62:17 0.000230445
18 *62:18 2.26344e-05
19 *62:19 1.5363e-05
20 *62:20 2.10553e-06
21 *62:21 0.000480849
22 *62:22 2.78982e-05
23 *62:23 2.63191e-06
24 *62:25 0.000487955
25 *62:26 5.26381e-06
26 *62:27 4.73743e-06
27 *62:28 7.10615e-06
28 *62:30 2.10553e-06

*RES
1 *62:30 *777:Q 1.4
2 *62:28 *778:SI 1.4
3 *62:27 *62:30 0.0171432
4 *62:26 *744:A 1.4
5 *62:25 *62:28 0.0578584
6 *62:23 *62:27 0.021429
7 *62:22 *62:26 0.042858
8 *62:21 *62:25 3.91508
9 *62:20 *690:B 1.4
10 *62:19 *62:23 1.4
11 *62:18 *62:22 0.18429
12 *62:17 *62:21 1.4
13 *62:16 *62:20 0.0171432
14 *62:15 *62:19 0.124283
15 *62:14 *62:18 1.4
16 *62:14 *62:17 1.86425
17 *62:13 *62:16 0.0385722
18 *62:12 *62:15 1.4
19 *62:11 *62:14 0.745699
20 *62:10 *62:13 1.4
21 *62:9 *62:12 0.74573
22 *62:9 *62:11 1.4
23 *62:8 *62:10 0.124283
24 *62:7 *62:9 0.994307
25 *62:7 *62:8 1.4
26 *62:6 *62:7 0.248577
27 *62:5 *62:6 1.4
28 *62:4 *62:5 1.24283
29 *62:3 *62:4 1.4
30 *62:2 *62:3 0.105002
31 *62:1 *62:2 0.0235719
32 *667:A *62:1 1.4
*END

*D_NET *63 0.00169374

*CONN
*I *666:A I *C 16.1175 94.9255 *L 0.0017 *D MX2X1
*I *689:B I *C 17.6455 93.2815 *L 0.00184 *D MX2X1
*I *777:SI I *C 19.6135 87.197 *L 0.00276 *D SDFFRHQX1
*I *776:Q O *C 21.0555 87.45 *L 0 *D SDFFRHQX1
*I *722:A I *C 21.3655 89.846 *L 0.0017 *D MX2X1

*CAP
1 *63:1 1.31595e-06
2 *63:2 3.94786e-06
3 *63:3 2.63191e-06
4 *63:4 1.5363e-05
5 *63:5 1.5363e-05
6 *63:6 0.000106855
7 *63:7 0.000106855
8 *63:8 6.14521e-05
9 *63:9 0.000168993
10 *63:10 0.000107541
11 *63:11 1.76338e-05
12 *63:12 0.000290036
13 *63:13 2.28976e-05
14 *63:14 0.000302669
15 *63:15 5.26381e-06
16 *63:16 7.68152e-05
17 *63:17 1.47387e-05
18 *63:19 9.21782e-05
19 *63:20 2.10553e-06
20 *63:21 7.89572e-07
21 *63:22 1.5363e-05
22 *63:24 2.36872e-06
23 *63:25 0.000126858
24 *63:26 1.57914e-06
25 *63:27 0.00012949
26 *63:29 2.63191e-06

*RES
1 *63:29 *722:A 1.4
2 *63:27 *63:29 0.021429
3 *63:26 *776:Q 1.4
4 *63:25 *63:27 1.03288
5 *63:24 *63:26 0.0128574
6 *63:22 *63:25 1.4
7 *63:21 *63:24 0.00642871
8 *63:20 *777:SI 1.4
9 *63:19 *63:22 0.124283
10 *63:19 *63:21 1.4
11 *63:17 *63:20 0.0171432
12 *63:16 *63:19 0.621415
13 *63:15 *689:B 1.4
14 *63:14 *63:17 0.102859
15 *63:14 *63:16 1.4
16 *63:13 *63:15 0.042858
17 *63:12 *63:14 2.36148
18 *63:11 *63:13 0.143574
19 *63:10 *63:12 1.4
20 *63:9 *63:11 1.4
21 *63:9 *63:10 0.869982
22 *63:8 *63:9 0.497132
23 *63:7 *63:8 1.4
24 *63:6 *63:7 0.870018
25 *63:5 *63:6 1.4
26 *63:4 *63:5 0.124283
27 *63:3 *63:4 1.4
28 *63:2 *63:3 0.021429
29 *63:1 *63:2 0.0107145
30 *666:A *63:1 1.4
*END

*D_NET *64 0.00204786

*CONN
*I *665:A I *C 34.2805 93.909 *L 0.0017 *D MX2X1
*I *688:B I *C 35.698 91.876 *L 0.00184 *D MX2X1
*I *721:A I *C 35.8835 86.493 *L 0.0017 *D MX2X1
*I *775:Q O *C 33.4085 84.6155 *L 0 *D SDFFRHQX1
*I *776:SI I *C 29.4655 88.03 *L 0.00276 *D SDFFRHQX1

*CAP
1 *64:1 4.39181e-06
2 *64:2 9.30031e-06
3 *64:3 4.9085e-06
4 *64:4 8.23094e-05
5 *64:5 8.23094e-05
6 *64:6 0.000100237
7 *64:7 0.000380538
8 *64:8 5.94186e-06
9 *64:9 0.000277976
10 *64:11 0.000131695
11 *64:12 7.23357e-06
12 *64:13 0.000131695
13 *64:14 3.61679e-06
14 *64:15 0.000175672
15 *64:17 7.49191e-05
16 *64:18 0.000105145
17 *64:19 0.000230466
18 *64:20 4.39181e-06
19 *64:21 0.000230466
20 *64:23 7.75026e-07
21 *64:24 2.32508e-06
22 *64:25 1.55005e-06

*RES
1 *64:25 *776:SI 1.4
2 *64:24 *64:25 0.0128575
3 *64:23 *64:24 0.00642873
4 *64:21 *64:23 1.4
5 *64:20 *775:Q 1.4
6 *64:19 *64:21 1.74004
7 *64:18 *64:20 0.0364295
8 *64:17 *64:19 1.4
9 *64:15 *64:18 0.835735
10 *64:15 *64:17 0.621444
11 *64:14 *721:A 1.4
12 *64:13 *64:15 1.4
13 *64:12 *64:14 0.0300007
14 *64:11 *64:13 0.99431
15 *64:9 *64:12 0.0300007
16 *64:9 *64:11 1.4
17 *64:8 *688:B 1.4
18 *64:7 *64:9 2.27577
19 *64:7 *64:8 0.0492869
20 *64:6 *64:7 0.831449
21 *64:5 *64:6 1.4
22 *64:4 *64:5 0.621444
23 *64:3 *64:4 1.4
24 *64:2 *64:3 0.0407153
25 *64:1 *64:2 0.0364295
26 *665:A *64:1 1.4
*END

*D_NET *65 0.00162709

*CONN
*I *664:A I *C 42.576 92.716 *L 0.0017 *D MX2X1
*I *687:B I *C 43.5915 90.012 *L 0.00184 *D MX2X1
*I *725:A I *C 42.7675 83.98 *L 0.0017 *D MX2X1
*I *775:SI I *C 41.8185 85.1955 *L 0.00276 *D SDFFRHQX1
*I *774:Q O *C 40.138 82.941 *L 0 *D SDFFRHQX1

*CAP
1 *65:1 4.65015e-06
2 *65:2 7.75026e-06
3 *65:3 3.1001e-06
4 *65:4 3.29238e-05
5 *65:5 3.29238e-05
6 *65:6 0.000134854
7 *65:7 0.000404563
8 *65:8 3.29238e-05
9 *65:9 0.000269709
10 *65:10 3.29238e-05
11 *65:11 1.64619e-05
12 *65:12 1.80839e-06
13 *65:13 6.58476e-05
14 *65:14 4.65015e-06
15 *65:15 4.36598e-05
16 *65:16 0.000148157
17 *65:17 2.84176e-06
18 *65:18 4.39181e-05
19 *65:19 1.91173e-05
20 *65:20 9.87713e-05
21 *65:22 2.58342e-07
22 *65:23 2.35091e-05
23 *65:24 9.73949e-05
24 *65:26 4.39181e-06
25 *65:27 9.86866e-05
26 *65:29 1.29171e-06

*RES
1 *65:29 *774:Q 1.4
2 *65:27 *65:29 0.0107145
3 *65:26 *775:SI 1.4
4 *65:24 *65:27 0.807877
5 *65:23 *65:26 0.0364295
6 *65:22 *725:A 1.4
7 *65:20 *65:24 1.4
8 *65:19 *65:23 0.158575
9 *65:18 *65:22 0.00214291
10 *65:17 *687:B 1.4
11 *65:16 *65:20 0.745732
12 *65:16 *65:19 1.4
13 *65:15 *65:18 0.362152
14 *65:14 *65:17 0.023572
15 *65:13 *65:16 0.372866
16 *65:13 *65:15 1.4
17 *65:12 *65:14 0.0150004
18 *65:11 *65:13 0.124289
19 *65:10 *65:12 1.4
20 *65:9 *65:11 1.4
21 *65:8 *65:10 0.248578
22 *65:7 *65:9 2.2372
23 *65:7 *65:8 1.4
24 *65:6 *65:7 1.1186
25 *65:5 *65:6 1.4
26 *65:4 *65:5 0.248578
27 *65:3 *65:4 1.4
28 *65:2 *65:3 0.0257149
29 *65:1 *65:2 0.0385724
30 *664:A *65:1 1.4
*END

*D_NET *66 0.00196178

*CONN
*I *663:A I *C 52.177 92.9255 *L 0.0017 *D MX2X1
*I *718:B I *C 53.077 90.109 *L 0.00184 *D MX2X1
*I *727:A I *C 52.974 84.0375 *L 0.0017 *D MX2X1
*I *773:Q O *C 50.125 82.882 *L 0 *D SDFFRHQX1
*I *774:SI I *C 48.548 83.521 *L 0.00276 *D SDFFRHQX1

*CAP
1 *66:1 6.2002e-06
2 *66:2 3.72012e-05
3 *66:3 3.1001e-05
4 *66:4 6.55231e-05
5 *66:5 6.55231e-05
6 *66:6 0.000176717
7 *66:7 0.000457446
8 *66:8 7.24462e-06
9 *66:9 0.000273484
10 *66:11 1.63692e-05
11 *66:12 0.000180756
12 *66:13 4.06216e-05
13 *66:14 0.000164387
14 *66:15 4.3209e-05
15 *66:16 5.99353e-05
16 *66:17 2.58736e-06
17 *66:18 0.000100495
18 *66:20 8.23094e-05
19 *66:21 4.57265e-05
20 *66:22 8.23094e-05
21 *66:23 5.16684e-06
22 *66:24 7.49191e-06
23 *66:26 8.78362e-06
24 *66:27 1.29171e-06

*RES
1 *66:27 *774:SI 1.4
2 *66:26 *66:27 0.0107145
3 *66:24 *66:26 0.0621444
4 *66:23 *773:Q 1.4
5 *66:22 *66:24 1.4
6 *66:21 *66:23 0.0428582
7 *66:20 *66:22 0.621444
8 *66:18 *66:21 0.336437
9 *66:18 *66:20 1.4
10 *66:17 *727:A 1.4
11 *66:16 *66:18 0.497155
12 *66:15 *66:17 0.0214282
13 *66:14 *66:16 1.4
14 *66:13 *66:15 0.336423
15 *66:12 *66:14 1.24287
16 *66:12 *66:13 1.4
17 *66:11 *66:12 0.124283
18 *66:9 *66:11 1.4
19 *66:8 *718:B 1.4
20 *66:7 *66:9 2.26496
21 *66:7 *66:8 0.059999
22 *66:6 *66:7 1.46355
23 *66:5 *66:6 1.4
24 *66:4 *66:5 0.497135
25 *66:3 *66:4 1.4
26 *66:2 *66:3 0.257149
27 *66:1 *66:2 0.0514298
28 *663:A *66:1 1.4
*END

*D_NET *67 0.00204577

*CONN
*I *662:A I *C 63.4545 92.9495 *L 0.0017 *D MX2X1
*I *753:A I *C 64.222 82.7025 *L 0.0017 *D MX2X1
*I *717:B I *C 64.541 90.3455 *L 0.00184 *D MX2X1
*I *772:Q O *C 61.322 82.356 *L 0 *D SDFFRHQX1
*I *773:SI I *C 58.535 83.462 *L 0.00276 *D SDFFRHQX1

*CAP
1 *67:1 4.65726e-06
2 *67:2 4.91599e-06
3 *67:3 2.58736e-07
4 *67:4 4.91075e-05
5 *67:5 4.91075e-05
6 *67:6 0.00013506
7 *67:7 0.000495222
8 *67:8 1.63692e-05
9 *67:9 0.000394832
10 *67:10 1.63692e-05
11 *67:11 9.82151e-05
12 *67:12 3.54469e-05
13 *67:13 5.17473e-07
14 *67:14 9.82151e-05
15 *67:15 7.76209e-07
16 *67:16 1.29368e-06
17 *67:17 3.00134e-05
18 *67:19 7.76209e-07
19 *67:20 3.00134e-05
20 *67:22 6.54767e-05
21 *67:23 0.000229168
22 *67:24 2.27688e-05
23 *67:25 0.000163692
24 *67:26 2.3545e-05
25 *67:27 3.44119e-05
26 *67:28 7.76209e-07
27 *67:29 3.95867e-05
28 *67:31 5.17473e-06

*RES
1 *67:31 *773:SI 1.4
2 *67:29 *67:31 0.0428564
3 *67:28 *772:Q 1.4
4 *67:27 *67:29 0.284995
5 *67:26 *67:28 0.00642846
6 *67:25 *67:27 1.4
7 *67:24 *67:26 0.188568
8 *67:23 *67:25 1.24283
9 *67:23 *67:24 1.4
10 *67:22 *67:23 0.497132
11 *67:20 *67:22 1.4
12 *67:19 *717:B 1.4
13 *67:17 *67:20 0.248567
14 *67:16 *67:19 0.00642846
15 *67:15 *753:A 1.4
16 *67:14 *67:17 1.4
17 *67:13 *67:16 0.00428564
18 *67:12 *67:15 0.00642846
19 *67:11 *67:14 0.745698
20 *67:10 *67:13 1.4
21 *67:9 *67:12 0.287138
22 *67:9 *67:11 1.4
23 *67:8 *67:10 0.124283
24 *67:7 *67:9 2.98281
25 *67:7 *67:8 1.4
26 *67:6 *67:7 1.11855
27 *67:5 *67:6 1.4
28 *67:4 *67:5 0.372849
29 *67:3 *67:4 1.4
30 *67:2 *67:3 0.00214282
31 *67:1 *67:2 0.0385708
32 *662:A *67:1 1.4
*END

*D_NET *68 0.00188504

*CONN
*I *716:B I *C 71.27 91.6815 *L 0.00184 *D MX2X1
*I *661:A I *C 70.3195 93.652 *L 0.0017 *D MX2X1
*I *752:A I *C 70.104 84.6355 *L 0.0017 *D MX2X1
*I *771:Q O *C 67.9785 84.603 *L 0 *D SDFFRHQX1
*I *772:SI I *C 69.732 82.936 *L 0.00276 *D SDFFRHQX1

*CAP
1 *68:1 3.88105e-06
2 *68:2 6.93414e-05
3 *68:3 6.54603e-05
4 *68:4 4.91075e-05
5 *68:5 8.18459e-05
6 *68:6 3.64818e-05
7 *68:7 3.27383e-05
8 *68:8 3.67406e-05
9 *68:9 0.000360161
10 *68:10 2.58736e-07
11 *68:11 0.000360161
12 *68:13 1.63692e-05
13 *68:14 1.63692e-05
14 *68:15 6.98588e-05
15 *68:16 7.86559e-05
16 *68:17 3.62231e-06
17 *68:18 5.17473e-06
18 *68:20 9.82151e-05
19 *68:21 0.000114584
20 *68:22 9.00403e-05
21 *68:23 1.63692e-05
22 *68:24 9.00403e-05
23 *68:25 3.62231e-06
24 *68:26 8.18459e-05
25 *68:27 4.91599e-06
26 *68:28 8.18459e-05
27 *68:29 1.29368e-06
28 *68:30 7.24462e-06
29 *68:32 8.02083e-06
30 *68:33 7.76209e-07

*RES
1 *68:33 *772:SI 1.4
2 *68:32 *68:33 0.00642846
3 *68:30 *68:32 0.059999
4 *68:29 *771:Q 1.4
5 *68:28 *68:30 1.4
6 *68:27 *68:29 0.0107141
7 *68:26 *68:28 0.621415
8 *68:25 *68:27 0.0299995
9 *68:24 *68:26 1.4
10 *68:23 *68:25 1.4
11 *68:22 *68:24 0.745701
12 *68:21 *68:23 0.124283
13 *68:21 *68:22 1.4
14 *68:20 *68:21 0.745698
15 *68:18 *68:20 1.4
16 *68:17 *752:A 1.4
17 *68:16 *68:18 0.0428564
18 *68:16 *68:17 0.0299995
19 *68:15 *68:16 0.578561
20 *68:14 *68:15 1.4
21 *68:13 *68:14 0.124283
22 *68:11 *68:13 1.4
23 *68:10 *661:A 1.4
24 *68:9 *68:11 2.98281
25 *68:8 *68:10 0.00214282
26 *68:7 *68:9 1.4
27 *68:6 *68:8 0.302138
28 *68:5 *68:7 0.248566
29 *68:5 *68:6 1.4
30 *68:4 *68:5 0.372849
31 *68:3 *68:4 1.4
32 *68:2 *68:3 0.542133
33 *68:1 *68:2 0.0321423
34 *716:B *68:1 1.4
*END

*D_NET *69 0.00271831

*CONN
*I *660:A I *C 87.865 94.712 *L 0.0017 *D MX2X1
*I *715:B I *C 88.588 93.1265 *L 0.00184 *D MX2X1
*I *751:A I *C 83.073 89.044 *L 0.0017 *D MX2X1
*I *770:Q O *C 81.943 87.7955 *L 0 *D SDFFRHQX1
*I *771:SI I *C 76.3885 85.183 *L 0.00276 *D SDFFRHQX1

*CAP
1 *69:1 7.44558e-06
2 *69:2 8.77515e-06
3 *69:3 1.32957e-06
4 *69:4 1.61012e-05
5 *69:5 1.61012e-05
6 *69:6 7.7115e-05
7 *69:7 0.000185076
8 *69:8 3.22024e-05
9 *69:9 0.000107961
10 *69:10 3.22024e-05
11 *69:11 0.00027372
12 *69:12 5.8501e-06
13 *69:13 0.000354226
14 *69:14 6.11601e-06
15 *69:15 0.000114875
16 *69:16 8.0506e-05
17 *69:17 2.65914e-07
18 *69:18 0.000115407
19 *69:19 0.000185076
20 *69:21 5.31827e-07
21 *69:22 0.000277614
22 *69:24 1.61012e-05
23 *69:25 9.2538e-05
24 *69:26 1.61012e-05
25 *69:27 3.22024e-05
26 *69:28 3.72279e-06
27 *69:29 3.22024e-05
28 *69:30 4.78645e-06
29 *69:31 4.6269e-05
30 *69:32 1.06365e-06
31 *69:33 4.6269e-05
32 *69:35 0.000259361
33 *69:36 0.000259361
34 *69:37 3.62231e-06
35 *69:38 4.91599e-06
36 *69:39 1.29368e-06

*RES
1 *69:39 *771:SI 1.4
2 *69:38 *69:39 0.0107141
3 *69:37 *69:38 0.0299995
4 *69:36 *69:37 1.4
5 *69:35 *69:36 1.98853
6 *69:33 *69:35 1.4
7 *69:32 *770:Q 1.4
8 *69:31 *69:33 0.372866
9 *69:30 *69:32 0.00857164
10 *69:29 *69:31 1.4
11 *69:28 *69:30 0.0300007
12 *69:27 *69:29 0.248566
13 *69:26 *69:28 1.4
14 *69:25 *69:27 1.4
15 *69:24 *69:26 0.124283
16 *69:22 *69:25 0.745732
17 *69:22 *69:24 1.4
18 *69:21 *751:A 1.4
19 *69:19 *69:22 1.49146
20 *69:18 *69:21 0.00428582
21 *69:17 *715:B 1.4
22 *69:16 *69:19 1.4
23 *69:15 *69:18 0.925737
24 *69:14 *69:17 0.00214291
25 *69:13 *69:16 0.621415
26 *69:13 *69:15 1.4
27 *69:12 *69:14 0.047144
28 *69:11 *69:13 2.11281
29 *69:10 *69:12 1.4
30 *69:9 *69:11 1.4
31 *69:8 *69:10 0.248566
32 *69:7 *69:9 0.870021
33 *69:7 *69:8 1.4
34 *69:6 *69:7 0.621444
35 *69:5 *69:6 1.4
36 *69:4 *69:5 0.124283
37 *69:3 *69:4 1.4
38 *69:2 *69:3 0.0107145
39 *69:1 *69:2 0.0600015
40 *660:A *69:1 1.4
*END

*D_NET *70 0.00203717

*CONN
*I *659:A I *C 98.888 93.7365 *L 0.0017 *D MX2X1
*I *714:B I *C 98.309 92.4195 *L 0.00184 *D MX2X1
*I *750:A I *C 95.2005 89.246 *L 0.0017 *D MX2X1
*I *769:Q O *C 91.0965 86.3925 *L 0 *D SDFFRHQX1
*I *770:SI I *C 90.353 88.3755 *L 0.00276 *D SDFFRHQX1

*CAP
1 *70:1 7.7115e-06
2 *70:2 1.19661e-05
3 *70:3 4.25462e-06
4 *70:4 1.61012e-05
5 *70:5 1.61012e-05
6 *70:6 7.7115e-05
7 *70:7 0.000138807
8 *70:8 1.61012e-05
9 *70:9 6.1692e-05
10 *70:10 1.61012e-05
11 *70:11 0.000177113
12 *70:12 2.92505e-06
13 *70:13 0.000193214
14 *70:14 1.06365e-05
15 *70:15 0.000104238
16 *70:16 1.61012e-05
17 *70:17 7.7115e-06
18 *70:18 0.000107695
19 *70:19 0.00015423
20 *70:21 3.45688e-06
21 *70:22 0.00015423
22 *70:24 0.000209316
23 *70:25 0.000257619
24 *70:26 0.000101579
25 *70:27 4.83036e-05
26 *70:28 0.000107429
27 *70:29 3.72279e-06
28 *70:30 5.8501e-06
29 *70:31 4.78645e-06
30 *70:33 1.06365e-06

*RES
1 *70:33 *770:SI 1.4
2 *70:31 *70:33 0.00857164
3 *70:30 *769:Q 1.4
4 *70:29 *70:31 0.0300007
5 *70:28 *70:30 0.047144
6 *70:27 *70:29 1.4
7 *70:26 *70:28 0.818591
8 *70:25 *70:27 0.372849
9 *70:25 *70:26 1.4
10 *70:24 *70:25 1.61568
11 *70:22 *70:24 1.4
12 *70:21 *750:A 1.4
13 *70:19 *70:22 1.24289
14 *70:18 *70:21 0.0278578
15 *70:17 *714:B 1.4
16 *70:16 *70:19 1.4
17 *70:15 *70:18 0.84002
18 *70:14 *70:17 0.0621444
19 *70:13 *70:16 0.124283
20 *70:13 *70:15 1.4
21 *70:12 *70:14 0.023572
22 *70:11 *70:13 1.36711
23 *70:10 *70:12 1.4
24 *70:9 *70:11 1.4
25 *70:8 *70:10 0.124283
26 *70:7 *70:9 0.497155
27 *70:7 *70:8 1.4
28 *70:6 *70:7 0.621444
29 *70:5 *70:6 1.4
30 *70:4 *70:5 0.124283
31 *70:3 *70:4 1.4
32 *70:2 *70:3 0.0342866
33 *70:1 *70:2 0.0621444
34 *659:A *70:1 1.4
*END

*D_NET *71 0.00234434

*CONN
*I *769:SI I *C 99.5065 86.9725 *L 0.00276 *D SDFFRHQX1
*I *713:B I *C 100.272 86.521 *L 0.00184 *D MX2X1
*I *658:A I *C 101.59 86.682 *L 0.0017 *D MX2X1
*I *749:A I *C 96.697 80.5705 *L 0.0017 *D MX2X1
*I *768:Q O *C 91.6965 76.3675 *L 0 *D SDFFRHQX1

*CAP
1 *71:1 5.8501e-06
2 *71:2 1.2232e-05
3 *71:3 6.38193e-06
4 *71:4 3.22024e-05
5 *71:5 3.22024e-05
6 *71:6 1.5423e-05
7 *71:7 1.78162e-05
8 *71:8 8.0506e-05
9 *71:9 0.000327872
10 *71:10 8.0506e-05
11 *71:11 3.9887e-06
12 *71:12 0.00032149
13 *71:13 6.11601e-06
14 *71:15 0.000193214
15 *71:16 9.04107e-06
16 *71:17 0.000466935
17 *71:18 2.92505e-06
18 *71:19 5.05236e-06
19 *71:20 0.00027372
20 *71:22 6.11601e-06
21 *71:23 0.000217114
22 *71:24 1.06365e-06
23 *71:25 0.000217114
24 *71:28 4.73045e-06
25 *71:29 4.73045e-06

*RES
1 *71:29 *768:Q 1.4
2 *71:28 *71:29 0.0385719
3 *71:27 *71:28 1.4
4 *71:25 *71:27 1.4
5 *71:24 *749:A 1.4
6 *71:23 *71:25 1.75932
7 *71:22 *71:24 0.00857164
8 *71:20 *71:23 1.4
9 *71:19 *71:22 0.0407153
10 *71:18 *658:A 1.4
11 *71:17 *71:20 2.11281
12 *71:17 *71:19 1.4
13 *71:16 *71:18 0.023572
14 *71:15 *71:17 1.4914
15 *71:13 *71:16 0.0492869
16 *71:12 *71:15 1.4
17 *71:11 *713:B 1.4
18 *71:10 *71:13 1.4
19 *71:9 *71:12 2.59078
20 *71:9 *71:11 0.0321436
21 *71:8 *71:10 0.621415
22 *71:7 *71:9 0.0192862
23 *71:7 *71:8 1.4
24 *71:6 *71:7 0.124289
25 *71:5 *71:6 1.4
26 *71:4 *71:5 0.248566
27 *71:3 *71:4 1.4
28 *71:2 *71:3 0.0514298
29 *71:1 *71:2 0.047144
30 *769:SI *71:1 1.4
*END

*D_NET *72 0.00280618

*CONN
*I *768:SI I *C 100.106 76.9475 *L 0.00276 *D SDFFRHQX1
*I *657:A I *C 99.9695 67.344 *L 0.0017 *D MX2X1
*I *712:B I *C 97.16 66.7755 *L 0.00184 *D MX2X1
*I *748:A I *C 92.4485 65.689 *L 0.0017 *D MX2X1
*I *767:Q O *C 88.2325 63.5435 *L 0 *D SDFFRHQX1

*CAP
1 *72:1 4.73045e-06
2 *72:2 7.09568e-06
3 *72:3 2.36523e-06
4 *72:4 1.47807e-05
5 *72:5 1.47807e-05
6 *72:6 0.00050721
7 *72:7 0.000536906
8 *72:8 3.41644e-06
9 *72:9 2.62803e-05
10 *72:11 0.000133026
11 *72:12 0.000384299
12 *72:13 3.67924e-06
13 *72:14 0.000458202
14 *72:15 1.07749e-05
15 *72:16 6.07075e-05
16 *72:17 0.00020693
17 *72:18 7.09568e-06
18 *72:19 6.51751e-05
19 *72:20 0.00017345
20 *72:22 4.46765e-06
21 *72:23 0.000177129
22 *72:25 3.67924e-06

*RES
1 *72:25 *767:Q 1.4
2 *72:23 *72:25 0.0300004
3 *72:22 *748:A 1.4
4 *72:20 *72:23 1.4143
5 *72:19 *72:22 0.036429
6 *72:18 *712:B 1.4
7 *72:17 *72:20 1.4
8 *72:16 *72:19 0.495006
9 *72:15 *72:18 0.0578579
10 *72:14 *72:17 1.73996
11 *72:14 *72:16 1.4
12 *72:13 *72:15 0.0300004
13 *72:12 *72:14 2.11281
14 *72:12 *72:13 1.4
15 *72:11 *72:12 1.11855
16 *72:9 *72:11 1.4
17 *72:8 *657:A 1.4
18 *72:7 *72:9 0.214289
19 *72:7 *72:8 0.0278575
20 *72:6 *72:7 4.13577
21 *72:5 *72:6 1.4
22 *72:4 *72:5 0.124283
23 *72:3 *72:4 1.4
24 *72:2 *72:3 0.019286
25 *72:1 *72:2 0.0385719
26 *768:SI *72:1 1.4
*END

*D_NET *73 0.0020706

*CONN
*I *767:SI I *C 96.6425 64.1235 *L 0.00276 *D SDFFRHQX1
*I *656:A I *C 98.35 58.9465 *L 0.0017 *D MX2X1
*I *711:B I *C 94.947 59.131 *L 0.00184 *D MX2X1
*I *747:A I *C 91.284 58.8145 *L 0.0017 *D MX2X1
*I *766:Q O *C 88.12 56.39 *L 0 *D SDFFRHQX1

*CAP
1 *73:1 3.67924e-06
2 *73:2 9.4609e-06
3 *73:3 5.78166e-06
4 *73:4 4.43422e-05
5 *73:5 4.43422e-05
6 *73:6 0.000274366
7 *73:7 0.000274366
8 *73:8 0.000177369
9 *73:9 4.43422e-05
10 *73:10 0.000325176
11 *73:11 3.67924e-06
12 *73:12 6.04447e-06
13 *73:13 0.00020693
14 *73:14 9.1981e-06
15 *73:15 7.62128e-06
16 *73:16 1.05121e-05
17 *73:17 1.47807e-05
18 *73:18 5.51886e-06
19 *73:19 1.57682e-06
20 *73:20 1.4717e-05
21 *73:21 0.000137183
22 *73:24 4.20485e-06
23 *73:25 0.000137183
24 *73:27 0.000147807
25 *73:28 0.000147807
26 *73:29 7.88408e-07
27 *73:30 6.30727e-06
28 *73:31 5.51886e-06

*RES
1 *73:31 *766:Q 1.4
2 *73:30 *73:31 0.0450006
3 *73:29 *73:30 0.00642866
4 *73:28 *73:29 1.4
5 *73:27 *73:28 1.24283
6 *73:25 *73:27 1.4
7 *73:24 *747:A 1.4
8 *73:21 *73:25 1.11859
9 *73:20 *73:24 0.0342862
10 *73:19 *711:B 1.4
11 *73:18 *656:A 1.4
12 *73:17 *73:21 1.4
13 *73:16 *73:20 0.0857154
14 *73:15 *73:19 0.0128573
15 *73:14 *73:18 0.0450006
16 *73:13 *73:17 0.124283
17 *73:13 *73:16 1.4
18 *73:12 *73:15 0.0492864
19 *73:11 *73:14 0.0300004
20 *73:10 *73:13 1.61568
21 *73:10 *73:12 1.4
22 *73:9 *73:11 1.4
23 *73:8 *73:10 1.11855
24 *73:8 *73:9 0.37285
25 *73:7 *73:8 1.4
26 *73:6 *73:7 2.23717
27 *73:5 *73:6 1.4
28 *73:4 *73:5 0.37285
29 *73:3 *73:4 1.4
30 *73:2 *73:3 0.0471435
31 *73:1 *73:2 0.0300004
32 *767:SI *73:1 1.4
*END

*D_NET *74 0.00289855

*CONN
*I *766:SI I *C 96.53 56.97 *L 0.00276 *D SDFFRHQX1
*I *655:A I *C 99.225 44.4275 *L 0.0017 *D MX2X1
*I *710:B I *C 95.2285 45.6015 *L 0.00184 *D MX2X1
*I *733:A I *C 93.673 43.781 *L 0.0017 *D MX2X1
*I *765:Q O *C 89.8495 42.1705 *L 0 *D SDFFRHQX1

*CAP
1 *74:1 5.51886e-06
2 *74:2 6.30727e-06
3 *74:3 7.88408e-07
4 *74:4 2.95614e-05
5 *74:5 2.95614e-05
6 *74:6 0.000635636
7 *74:7 0.0006507
8 *74:8 0.000184602
9 *74:9 1.5064e-05
10 *74:10 0.000184602
11 *74:11 3.0767e-05
12 *74:12 1.94794e-05
13 *74:13 0.000107685
14 *74:14 2.46739e-05
15 *74:15 5.63603e-05
16 *74:16 9.2301e-05
17 *74:17 5.1945e-06
18 *74:18 5.81784e-05
19 *74:19 3.81796e-05
20 *74:20 1.53835e-05
21 *74:22 1.81807e-06
22 *74:23 4.54519e-05
23 *74:24 0.000120512
24 *74:26 7.2723e-06
25 *74:27 0.000120512
26 *74:29 0.000199986
27 *74:30 0.000199986
28 *74:31 1.29862e-06
29 *74:32 6.2334e-06
30 *74:33 4.93477e-06

*RES
1 *74:33 *765:Q 1.4
2 *74:32 *74:33 0.0407133
3 *74:31 *74:32 0.010714
4 *74:30 *74:31 1.4
5 *74:29 *74:30 1.61574
6 *74:27 *74:29 1.4
7 *74:26 *733:A 1.4
8 *74:24 *74:27 0.994261
9 *74:23 *74:26 0.0599985
10 *74:22 *710:B 1.4
11 *74:20 *74:24 1.4
12 *74:19 *74:23 0.314992
13 *74:18 *74:22 0.0149996
14 *74:17 *655:A 1.4
15 *74:16 *74:20 0.124288
16 *74:16 *74:19 1.4
17 *74:15 *74:18 0.464989
18 *74:14 *74:17 0.0428561
19 *74:13 *74:16 0.621439
20 *74:13 *74:15 1.4
21 *74:12 *74:14 0.16071
22 *74:11 *74:13 0.248575
23 *74:10 *74:12 1.4
24 *74:9 *74:11 1.4
25 *74:8 *74:10 1.49145
26 *74:7 *74:9 0.124283
27 *74:7 *74:8 1.4
28 *74:6 *74:7 5.21995
29 *74:5 *74:6 1.4
30 *74:4 *74:5 0.248566
31 *74:3 *74:4 1.4
32 *74:2 *74:3 0.00642866
33 *74:1 *74:2 0.0450006
34 *766:SI *74:1 1.4
*END

*D_NET *75 0.00258948

*CONN
*I *765:SI I *C 98.2595 42.7505 *L 0.00276 *D SDFFRHQX1
*I *746:A I *C 94.6305 32.669 *L 0.0017 *D MX2X1
*I *654:A I *C 99.429 34.2605 *L 0.0017 *D MX2X1
*I *709:B I *C 92.916 35.807 *L 0.00184 *D MX2X1
*I *764:Q O *C 90.0565 33.2225 *L 0 *D SDFFRHQX1

*CAP
1 *75:1 4.93477e-06
2 *75:2 6.2334e-06
3 *75:3 1.29862e-06
4 *75:4 3.0767e-05
5 *75:5 3.0767e-05
6 *75:6 0.000361537
7 *75:7 0.000436857
8 *75:8 0.000215369
9 *75:9 7.53202e-05
10 *75:10 0.000215369
11 *75:11 3.0767e-05
12 *75:12 9.03843e-05
13 *75:13 3.0767e-05
14 *75:14 0.000163367
15 *75:15 5.45422e-06
16 *75:16 7.69175e-05
17 *75:17 7.58397e-05
18 *75:18 1.09084e-05
19 *75:19 9.2301e-05
20 *75:20 2.85697e-06
21 *75:21 5.45422e-06
22 *75:22 1.5064e-05
23 *75:23 1.53835e-05
24 *75:26 1.5064e-05
25 *75:27 8.98648e-05
26 *75:28 0.000169219
27 *75:29 9.14232e-05
28 *75:30 0.000169219
29 *75:31 1.55835e-06
30 *75:32 2.90892e-05
31 *75:34 2.96086e-05
32 *75:35 5.1945e-07

*RES
1 *75:35 *764:Q 1.4
2 *75:34 *75:35 0.00428561
3 *75:32 *75:34 0.239994
4 *75:31 *709:B 1.4
5 *75:30 *75:32 1.4
6 *75:29 *75:31 0.0128568
7 *75:28 *75:30 1.36717
8 *75:27 *75:29 0.74141
9 *75:26 *75:28 1.4
10 *75:23 *75:27 1.4
11 *75:22 *75:26 0.124283
12 *75:21 *654:A 1.4
13 *75:20 *746:A 1.4
14 *75:19 *75:23 0.124288
15 *75:19 *75:22 1.4
16 *75:18 *75:21 0.0449989
17 *75:17 *75:20 0.0235709
18 *75:16 *75:19 0.621439
19 *75:15 *75:18 0.0449989
20 *75:14 *75:17 0.602128
21 *75:14 *75:16 1.4
22 *75:13 *75:15 1.4
23 *75:12 *75:14 0.745696
24 *75:11 *75:13 0.248575
25 *75:10 *75:12 1.4
26 *75:9 *75:11 1.4
27 *75:8 *75:10 1.74003
28 *75:7 *75:9 0.621413
29 *75:7 *75:8 1.4
30 *75:6 *75:7 2.98278
31 *75:5 *75:6 1.4
32 *75:4 *75:5 0.248575
33 *75:3 *75:4 1.4
34 *75:2 *75:3 0.010714
35 *75:1 *75:2 0.0407133
36 *765:SI *75:1 1.4
*END

*D_NET *76 0.00395615

*CONN
*I *653:A I *C 74.5875 34.482 *L 0.0017 *D MX2X1
*I *708:B I *C 75.691 34.021 *L 0.00184 *D MX2X1
*I *736:A I *C 93.9 26.333 *L 0.0017 *D MX2X1
*I *763:Q O *C 94.7845 29.124 *L 0 *D SDFFRHQX1
*I *764:SI I *C 98.4665 33.8025 *L 0.00276 *D SDFFRHQX1

*CAP
1 *76:1 4.27682e-06
2 *76:2 1.00631e-05
3 *76:3 5.78629e-06
4 *76:4 4.19433e-05
5 *76:5 0.000874713
6 *76:6 0.00083277
7 *76:7 1.73589e-05
8 *76:8 0.000271153
9 *76:9 2.46546e-05
10 *76:10 0.000271153
11 *76:11 7.29575e-06
12 *76:12 0.000123068
13 *76:14 0.000169219
14 *76:15 4.61505e-05
15 *76:16 0.000145965
16 *76:17 1.0389e-06
17 *76:18 0.000150381
18 *76:19 2.02585e-05
19 *76:20 4.41532e-06
20 *76:21 5.1945e-06
21 *76:22 1.40251e-05
22 *76:25 0.000199986
23 *76:26 0.000199986
24 *76:27 0.000257128
25 *76:28 0.000257647
26 *76:29 5.1945e-07

*RES
1 *76:29 *764:SI 1.4
2 *76:28 *76:29 0.00428561
3 *76:27 *76:28 2.12138
4 *76:26 *76:27 1.4
5 *76:25 *76:26 1.61574
6 *76:22 *76:25 1.4
7 *76:21 *763:Q 1.4
8 *76:20 *736:A 1.4
9 *76:19 *76:22 0.115711
10 *76:19 *76:21 0.0428561
11 *76:18 *76:20 0.0364277
12 *76:17 *76:19 0.00857122
13 *76:16 *76:18 1.20426
14 *76:15 *76:17 1.4
15 *76:14 *76:16 1.4
16 *76:14 *76:15 0.372863
17 *76:12 *76:14 0.994302
18 *76:11 *708:B 1.4
19 *76:10 *76:12 1.4
20 *76:9 *76:11 0.0621413
21 *76:8 *76:10 2.23709
22 *76:7 *76:9 0.147854
23 *76:6 *76:8 1.4
24 *76:5 *76:7 1.4
25 *76:5 *76:6 6.83578
26 *76:4 *76:5 0.372848
27 *76:3 *76:4 1.4
28 *76:2 *76:3 0.0492845
29 *76:1 *76:2 0.0364277
30 *653:A *76:1 1.4
*END

*D_NET *77 0.00247213

*CONN
*I *530:SI I *C 73.8665 26.9465 *L 0.00276 *D SDFFRHQX1
*I *1006:B I *C 69.905 38.5635 *L 0.00349 *D XNOR2X1
*I *860:Q O *C 63.509 38.628 *L 0 *D SDFFRHQX1

*CAP
1 *77:1 3.01893e-06
2 *77:2 3.01893e-06
3 *77:4 0.000577622
4 *77:5 0.000577622
5 *77:6 0.000293603
6 *77:7 0.000293603
7 *77:8 1.45915e-05
8 *77:9 1.45915e-05
9 *77:10 0.000321566
10 *77:11 0.000111849
11 *77:12 0.000209717
12 *77:13 7.54733e-06
13 *77:14 4.27682e-06
14 *77:15 1.40883e-05
15 *77:16 1.15726e-05
16 *77:17 6.54102e-06
17 *77:18 7.29575e-06

*RES
1 *77:18 *860:Q 1.4
2 *77:17 *1006:B 1.4
3 *77:16 *77:18 0.0621413
4 *77:15 *77:17 0.0557129
5 *77:14 *77:16 0.0364277
6 *77:13 *77:15 0.0642841
7 *77:12 *77:14 1.4
8 *77:11 *77:13 1.4
9 *77:10 *77:12 1.86424
10 *77:10 *77:11 0.994261
11 *77:9 *77:10 1.4
12 *77:8 *77:9 0.124283
13 *77:7 *77:8 1.4
14 *77:6 *77:7 2.60994
15 *77:5 *77:6 1.4
16 *77:4 *77:5 4.91988
17 *77:3 *77:4 1.4
18 *77:2 *77:3 1.4
19 *77:1 *77:2 0.0257137
20 *530:SI *77:1 1.4
*END

*D_NET *78 0.00191361

*CONN
*I *860:SI I *C 71.919 39.208 *L 0.00276 *D SDFFRHQX1
*I *975:A I *C 65.7525 49.605 *L 0.00666 *D ADDFX1
*I *859:Q O *C 63.03 47.679 *L 0 *D SDFFRHQX1

*CAP
1 *78:1 7.29575e-06
2 *78:2 1.15726e-05
3 *78:3 4.27682e-06
4 *78:4 0.000209717
5 *78:5 0.000209717
6 *78:6 0.000423154
7 *78:7 0.000423154
8 *78:8 8.38867e-05
9 *78:9 0.000209717
10 *78:10 9.55995e-05
11 *78:11 0.00012583
12 *78:12 9.91216e-05
13 *78:13 1.25789e-06
14 *78:14 3.52209e-06
15 *78:15 3.52209e-06
16 *78:17 2.2642e-06

*RES
1 *78:17 *859:Q 1.4
2 *78:15 *78:17 0.0192852
3 *78:14 *975:A 1.4
4 *78:13 *78:15 0.010714
5 *78:12 *78:14 0.0299993
6 *78:11 *78:13 1.4
7 *78:10 *78:12 0.814266
8 *78:9 *78:11 1.11854
9 *78:9 *78:10 1.4
10 *78:8 *78:9 0.745696
11 *78:7 *78:8 1.4
12 *78:6 *78:7 3.6042
13 *78:5 *78:6 1.4
14 *78:4 *78:5 1.86424
15 *78:3 *78:4 1.4
16 *78:2 *78:3 0.0364277
17 *78:1 *78:2 0.0621413
18 *860:SI *78:1 1.4
*END

*D_NET *79 0.0021876

*CONN
*I *859:SI I *C 71.44 48.259 *L 0.00276 *D SDFFRHQX1
*I *976:A I *C 63.3965 57.142 *L 0.00666 *D ADDFX1
*I *858:Q O *C 60.7895 58.8345 *L 0 *D SDFFRHQX1

*CAP
1 *79:1 2.2642e-06
2 *79:2 3.52209e-06
3 *79:3 1.25789e-06
4 *79:4 0.000307584
5 *79:5 0.000307584
6 *79:6 0.000383001
7 *79:7 0.000383001
8 *79:8 8.74657e-05
9 *79:9 0.000218664
10 *79:10 4.87013e-05
11 *79:11 0.000131199
12 *79:12 5.01267e-05
13 *79:13 0.000129237
14 *79:14 1.4254e-06
15 *79:15 0.0001309
16 *79:17 1.66297e-06

*RES
1 *79:17 *858:Q 1.4
2 *79:15 *79:17 0.0149999
3 *79:14 *976:A 1.4
4 *79:13 *79:15 1.16571
5 *79:12 *79:14 0.0128571
6 *79:11 *79:13 1.4
7 *79:10 *79:12 0.439284
8 *79:9 *79:11 1.1186
9 *79:9 *79:10 1.4
10 *79:8 *79:9 0.745732
11 *79:7 *79:8 1.4
12 *79:6 *79:7 3.35567
13 *79:5 *79:6 1.4
14 *79:4 *79:5 2.73422
15 *79:3 *79:4 1.4
16 *79:2 *79:3 0.010714
17 *79:1 *79:2 0.0192852
18 *859:SI *79:1 1.4
*END

*D_NET *80 0.00286151

*CONN
*I *858:SI I *C 69.1995 59.4145 *L 0.00276 *D SDFFRHQX1
*I *977:A I *C 47.4795 58.8615 *L 0.00666 *D ADDFX1
*I *857:Q O *C 41.75 59.5015 *L 0 *D SDFFRHQX1

*CAP
1 *80:1 1.66297e-06
2 *80:2 1.02154e-05
3 *80:3 8.55242e-06
4 *80:4 0.000986383
5 *80:5 0.000986383
6 *80:6 1.39799e-05
7 *80:7 1.39799e-05
8 *80:8 9.84366e-05
9 *80:9 0.000379684
10 *80:10 2.14519e-05
11 *80:11 0.000281247
12 *80:12 2.14519e-05
13 *80:13 9.40026e-06
14 *80:15 9.40026e-06
15 *80:16 3.13342e-06
16 *80:18 3.13342e-06
17 *80:19 6.50787e-06
18 *80:21 6.50787e-06

*RES
1 *80:21 *857:Q 1.4
2 *80:19 *80:21 0.0578557
3 *80:18 *977:A 1.4
4 *80:17 *80:19 1.4
5 *80:16 *80:18 0.0278565
6 *80:15 *80:17 1.4
7 *80:14 *80:16 1.4
8 *80:13 *80:15 0.0835694
9 *80:12 *80:14 1.4
10 *80:11 *80:13 1.4
11 *80:10 *80:12 0.19071
12 *80:9 *80:11 2.48565
13 *80:9 *80:10 1.4
14 *80:8 *80:9 0.869979
15 *80:7 *80:8 1.4
16 *80:6 *80:7 0.124283
17 *80:5 *80:6 1.4
18 *80:4 *80:5 8.45158
19 *80:3 *80:4 1.4
20 *80:2 *80:3 0.0771425
21 *80:1 *80:2 0.0149999
22 *858:SI *80:1 1.4
*END

*D_NET *81 0.00149264

*CONN
*I *857:SI I *C 50.16 60.0815 *L 0.00276 *D SDFFRHQX1
*I *978:A I *C 42.7985 56.4555 *L 0.00666 *D ADDFX1
*I *856:Q O *C 38.859 56.4785 *L 0 *D SDFFRHQX1

*CAP
1 *81:1 6.50787e-06
2 *81:2 0.000183667
3 *81:3 0.000177159
4 *81:4 0.000351559
5 *81:5 0.000548432
6 *81:6 2.41032e-06
7 *81:7 0.000196873
8 *81:8 3.61549e-06
9 *81:9 3.61549e-06
10 *81:10 1.20516e-06
11 *81:11 1.06054e-05
12 *81:13 6.98994e-06

*RES
1 *81:13 *856:Q 1.4
2 *81:11 *81:13 0.0621413
3 *81:10 *978:A 1.4
4 *81:9 *81:11 0.0321421
5 *81:8 *81:10 0.010714
6 *81:7 *81:9 1.4
7 *81:6 *81:8 0.021428
8 *81:5 *81:7 1.73996
9 *81:5 *81:6 1.4
10 *81:4 *81:5 3.10707
11 *81:3 *81:4 1.4
12 *81:2 *81:3 1.57496
13 *81:1 *81:2 0.0578557
14 *857:SI *81:1 1.4
*END

*D_NET *82 0.0024206

*CONN
*I *856:SI I *C 47.269 57.0585 *L 0.00276 *D SDFFRHQX1
*I *979:A I *C 42.238 43.412 *L 0.00666 *D ADDFX1
*I *855:Q O *C 39.4455 40.577 *L 0 *D SDFFRHQX1

*CAP
1 *82:1 6.98994e-06
2 *82:2 0.000642271
3 *82:3 0.000635281
4 *82:4 0.000220699
5 *82:5 0.000220699
6 *82:6 4.37452e-05
7 *82:7 0.000174981
8 *82:8 1.37937e-05
9 *82:9 0.000131236
10 *82:10 1.37937e-05
11 *82:11 0.000137937
12 *82:12 2.7655e-06
13 *82:13 0.000137937
14 *82:14 5.02819e-06
15 *82:15 8.54792e-06
16 *82:16 2.26268e-06
17 *82:17 1.55874e-05
18 *82:19 7.03946e-06

*RES
1 *82:19 *855:Q 1.4
2 *82:17 *82:19 0.0600015
3 *82:16 *979:A 1.4
4 *82:15 *82:17 0.0728589
5 *82:14 *82:16 0.0192862
6 *82:13 *82:15 1.4
7 *82:12 *82:14 0.023572
8 *82:11 *82:13 1.24283
9 *82:10 *82:12 1.4
10 *82:9 *82:11 1.4
11 *82:8 *82:10 0.124283
12 *82:7 *82:9 1.1186
13 *82:7 *82:8 1.4
14 *82:6 *82:7 0.372866
15 *82:5 *82:6 1.4
16 *82:4 *82:5 1.98852
17 *82:3 *82:4 1.4
18 *82:2 *82:3 5.50075
19 *82:1 *82:2 0.0621413
20 *856:SI *82:1 1.4
*END

*D_NET *83 0.00158923

*CONN
*I *855:SI I *C 47.8555 41.157 *L 0.00276 *D SDFFRHQX1
*I *980:A I *C 43.0705 36.247 *L 0.00666 *D ADDFX1
*I *854:Q O *C 40.819 34.4215 *L 0 *D SDFFRHQX1

*CAP
1 *83:1 7.03946e-06
2 *83:2 1.30733e-05
3 *83:3 6.03382e-06
4 *83:4 0.000206906
5 *83:5 0.000206906
6 *83:6 0.00033538
7 *83:7 0.00033538
8 *83:8 2.75874e-05
9 *83:9 0.000137937
10 *83:10 9.45299e-05
11 *83:11 0.00011035
12 *83:12 9.47813e-05
13 *83:13 2.7655e-06
14 *83:14 2.51409e-07
15 *83:15 6.53664e-06
16 *83:17 3.77114e-06

*RES
1 *83:17 *854:Q 1.4
2 *83:15 *83:17 0.0321436
3 *83:14 *980:A 1.4
4 *83:13 *83:15 0.023572
5 *83:12 *83:14 0.00214291
6 *83:11 *83:13 1.4
7 *83:10 *83:12 0.805734
8 *83:9 *83:11 0.994261
9 *83:9 *83:10 1.4
10 *83:8 *83:9 0.248565
11 *83:7 *83:8 1.4
12 *83:6 *83:7 2.85864
13 *83:5 *83:6 1.4
14 *83:4 *83:5 1.86424
15 *83:3 *83:4 1.4
16 *83:2 *83:3 0.0514298
17 *83:1 *83:2 0.0600015
18 *855:SI *83:1 1.4
*END

*D_NET *84 0.00229844

*CONN
*I *854:SI I *C 49.229 35.0015 *L 0.00276 *D SDFFRHQX1
*I *981:A I *C 43.2915 25.4245 *L 0.00666 *D ADDFX1
*I *853:Q O *C 41.294 21.924 *L 0 *D SDFFRHQX1

*CAP
1 *84:1 3.77114e-06
2 *84:2 6.53664e-06
3 *84:3 2.7655e-06
4 *84:4 1.37937e-05
5 *84:5 1.37937e-05
6 *84:6 0.000483006
7 *84:7 0.000483006
8 *84:8 0.000342115
9 *84:9 0.000456153
10 *84:10 2.6388e-06
11 *84:11 0.000114038
12 *84:12 6.06925e-06
13 *84:13 0.000182077
14 *84:14 3.43044e-06
15 *84:15 0.000183661
16 *84:17 1.58328e-06

*RES
1 *84:17 *853:Q 1.4
2 *84:15 *84:17 0.0128569
3 *84:14 *981:A 1.4
4 *84:13 *84:15 1.47854
5 *84:12 *84:14 0.0278566
6 *84:11 *84:13 1.4
7 *84:10 *84:12 0.0214282
8 *84:9 *84:11 0.869979
9 *84:9 *84:10 1.4
10 *84:8 *84:9 2.60994
11 *84:7 *84:8 1.4
12 *84:6 *84:7 4.10152
13 *84:5 *84:6 1.4
14 *84:4 *84:5 0.124283
15 *84:3 *84:4 1.4
16 *84:2 *84:3 0.023572
17 *84:1 *84:2 0.0321436
18 *854:SI *84:1 1.4
*END

*D_NET *85 0.00214746

*CONN
*I *853:SI I *C 49.704 22.504 *L 0.00276 *D SDFFRHQX1
*I *982:A I *C 40.689 17.7265 *L 0.00666 *D ADDFX1
*I *852:Q O *C 38.66 14.142 *L 0 *D SDFFRHQX1

*CAP
1 *85:1 1.58328e-06
2 *85:2 3.16656e-06
3 *85:3 1.58328e-06
4 *85:4 0.000505026
5 *85:5 0.000505026
6 *85:6 0.000244881
7 *85:7 0.000250686
8 *85:8 0.000114038
9 *85:9 8.70805e-06
10 *85:10 0.000114038
11 *85:11 2.90268e-06
12 *85:12 0.000195007
13 *85:14 0.00019791
14 *85:15 2.90268e-06

*RES
1 *85:15 *852:Q 1.4
2 *85:14 *85:15 0.023571
3 *85:12 *85:14 1.58354
4 *85:11 *982:A 1.4
5 *85:10 *85:12 1.4
6 *85:9 *85:11 0.023571
7 *85:8 *85:10 0.869979
8 *85:7 *85:9 0.047142
9 *85:7 *85:8 1.4
10 *85:6 *85:7 1.98854
11 *85:5 *85:6 1.4
12 *85:4 *85:5 3.85276
13 *85:3 *85:4 1.4
14 *85:2 *85:3 0.0128569
15 *85:1 *85:2 0.0128569
16 *853:SI *85:1 1.4
*END

*D_NET *86 0.00208716

*CONN
*I *852:SI I *C 47.07 14.722 *L 0.00276 *D SDFFRHQX1
*I *983:A I *C 31.9205 15.3 *L 0.00666 *D ADDFX1
*I *851:Q O *C 30.2925 13.697 *L 0 *D SDFFRHQX1

*CAP
1 *86:1 2.90268e-06
2 *86:2 6.86089e-06
3 *86:3 3.9582e-06
4 *86:4 0.000847141
5 *86:5 0.000944888
6 *86:6 3.45683e-05
7 *86:7 9.7747e-05
8 *86:8 4.11653e-05
9 *86:9 5.01372e-05
10 *86:10 6.59701e-06
11 *86:11 5.0665e-05
12 *86:13 5.27761e-07

*RES
1 *86:13 *851:Q 1.4
2 *86:11 *86:13 0.00428564
3 *86:10 *983:A 1.4
4 *86:9 *86:11 0.407135
5 *86:8 *86:10 0.0535705
6 *86:7 *86:9 1.4
7 *86:6 *86:8 0.280709
8 *86:5 *86:7 0.745696
9 *86:5 *86:6 1.4
10 *86:4 *86:5 6.4627
11 *86:3 *86:4 1.4
12 *86:2 *86:3 0.0321423
13 *86:1 *86:2 0.023571
14 *852:SI *86:1 1.4
*END

*D_NET *87 0.00297696

*CONN
*I *851:SI I *C 38.7025 14.277 *L 0.00276 *D SDFFRHQX1
*I *984:A I *C 20.767 16.996 *L 0.00666 *D ADDFX1
*I *850:Q O *C 14.3085 16.1485 *L 0 *D SDFFRHQX1

*CAP
1 *87:1 5.27761e-07
2 *87:2 4.74984e-06
3 *87:3 4.22208e-06
4 *87:4 0.000998333
5 *87:5 0.000998333
6 *87:6 8.85249e-05
7 *87:7 8.85249e-05
8 *87:8 0.000344469
9 *87:9 4.57888e-05
10 *87:10 0.000344469
11 *87:11 4.7315e-05
12 *87:12 2.7982e-06
13 *87:13 1.52629e-06
14 *87:14 5.08764e-06
15 *87:16 2.28944e-06

*RES
1 *87:16 *850:Q 1.4
2 *87:14 *87:16 0.0192854
3 *87:13 *984:A 1.4
4 *87:12 *87:14 0.0235711
5 *87:11 *87:13 0.012857
6 *87:10 *87:12 1.4
7 *87:9 *87:11 0.385709
8 *87:8 *87:10 2.73435
9 *87:8 *87:9 1.4
10 *87:7 *87:8 1.4
11 *87:6 *87:7 0.745704
12 *87:5 *87:6 1.4
13 *87:4 *87:5 7.70564
14 *87:3 *87:4 1.4
15 *87:2 *87:3 0.0342851
16 *87:1 *87:2 0.00428564
17 *851:SI *87:1 1.4
*END

*D_NET *88 0.00193448

*CONN
*I *850:SI I *C 22.7185 16.7285 *L 0.00276 *D SDFFRHQX1
*I *985:A I *C 17.129 24.171 *L 0.00666 *D ADDFX1
*I *849:Q O *C 12.697 24.2905 *L 0 *D SDFFRHQX1

*CAP
1 *88:1 2.28944e-06
2 *88:2 4.37537e-05
3 *88:3 4.14643e-05
4 *88:4 0.000297496
5 *88:5 0.000297496
6 *88:6 0.000337056
7 *88:7 0.000360459
8 *88:8 1.70436e-05
9 *88:9 6.35955e-06
10 *88:10 0.000250523
11 *88:12 0.000250523
12 *88:13 1.09384e-05
13 *88:14 1.50085e-05
14 *88:15 4.07011e-06

*RES
1 *88:15 *849:Q 1.4
2 *88:14 *88:15 0.0342852
3 *88:13 *88:14 0.0921415
4 *88:12 *88:13 1.4
5 *88:10 *88:12 1.98862
6 *88:9 *985:A 1.4
7 *88:8 *88:10 1.4
8 *88:7 *88:9 0.0535707
9 *88:7 *88:8 0.143569
10 *88:6 *88:7 2.83925
11 *88:5 *88:6 1.4
12 *88:4 *88:5 2.36149
13 *88:3 *88:4 1.4
14 *88:2 *88:3 0.349281
15 *88:1 *88:2 0.0192854
16 *850:SI *88:1 1.4
*END

*D_NET *89 0.00190441

*CONN
*I *849:SI I *C 21.107 24.8705 *L 0.00276 *D SDFFRHQX1
*I *986:A I *C 16.995 34.2 *L 0.00666 *D ADDFX1
*I *848:Q O *C 13.996 36.0805 *L 0 *D SDFFRHQX1

*CAP
1 *89:1 4.07011e-06
2 *89:2 0.000480924
3 *89:3 0.000476854
4 *89:4 0.00020734
5 *89:5 0.000355441
6 *89:6 6.49335e-06
7 *89:7 0.0001481
8 *89:8 8.05175e-06
9 *89:9 0.000104153
10 *89:10 1.5584e-06
11 *89:11 0.00010779
12 *89:13 3.63628e-06

*RES
1 *89:13 *848:Q 1.4
2 *89:11 *89:13 0.0299993
3 *89:10 *986:A 1.4
4 *89:9 *89:11 0.859265
5 *89:8 *89:10 0.0128568
6 *89:7 *89:9 1.4
7 *89:6 *89:8 0.0535701
8 *89:5 *89:7 1.24283
9 *89:5 *89:6 1.4
10 *89:4 *89:5 1.73996
11 *89:3 *89:4 1.4
12 *89:2 *89:3 3.94491
13 *89:1 *89:2 0.0342852
14 *849:SI *89:1 1.4
*END

*D_NET *90 0.0014553

*CONN
*I *848:SI I *C 22.406 36.6605 *L 0.00276 *D SDFFRHQX1
*I *987:A I *C 17.605 41.612 *L 0.00666 *D ADDFX1
*I *847:Q O *C 14.882 43.0635 *L 0 *D SDFFRHQX1

*CAP
1 *90:1 3.63628e-06
2 *90:2 0.000261033
3 *90:3 0.000257396
4 *90:4 0.00025177
5 *90:5 0.000385061
6 *90:6 2.59734e-07
7 *90:7 0.00013329
8 *90:8 3.37654e-06
9 *90:9 7.53229e-05
10 *90:10 3.11681e-06
11 *90:11 7.81799e-05
12 *90:13 2.85707e-06

*RES
1 *90:13 *847:Q 1.4
2 *90:11 *90:13 0.0235709
3 *90:10 *987:A 1.4
4 *90:9 *90:11 0.621413
5 *90:8 *90:10 0.0257137
6 *90:7 *90:9 1.4
7 *90:6 *90:8 0.0021428
8 *90:5 *90:7 1.11855
9 *90:5 *90:6 1.4
10 *90:4 *90:5 2.11281
11 *90:3 *90:4 1.4
12 *90:2 *90:3 2.12352
13 *90:1 *90:2 0.0299993
14 *848:SI *90:1 1.4
*END

*D_NET *91 0.00224192

*CONN
*I *847:SI I *C 23.292 43.6435 *L 0.00276 *D SDFFRHQX1
*I *988:A I *C 17.9215 53.7585 *L 0.00666 *D ADDFX1
*I *846:Q O *C 15.1795 56.483 *L 0 *D SDFFRHQX1

*CAP
1 *91:1 2.85707e-06
2 *91:2 2.85707e-06
3 *91:4 0.000529793
4 *91:5 0.000529793
5 *91:6 0.000295498
6 *91:7 0.000295498
7 *91:8 0.000108675
8 *91:9 1.87371e-06
9 *91:10 0.000108675
10 *91:11 6.42415e-06
11 *91:12 0.000139973
12 *91:13 4.55044e-06
13 *91:14 0.000139973
14 *91:16 3.53328e-05
15 *91:17 3.77419e-05
16 *91:18 2.40906e-06

*RES
1 *91:18 *846:Q 1.4
2 *91:17 *91:18 0.0192854
3 *91:16 *91:17 0.282853
4 *91:14 *91:16 1.4
5 *91:13 *988:A 1.4
6 *91:12 *91:14 1.11855
7 *91:11 *91:13 0.036428
8 *91:10 *91:12 1.4
9 *91:9 *91:11 0.0149998
10 *91:8 *91:10 0.869986
11 *91:7 *91:9 1.4
12 *91:7 *91:8 1.4
13 *91:6 *91:7 2.36138
14 *91:5 *91:6 1.4
15 *91:4 *91:5 4.3499
16 *91:3 *91:4 1.4
17 *91:2 *91:3 1.4
18 *91:1 *91:2 0.0235709
19 *847:SI *91:1 1.4
*END

*D_NET *92 0.00166609

*CONN
*I *846:SI I *C 23.5895 57.063 *L 0.00276 *D SDFFRHQX1
*I *989:A I *C 17.726 61.9795 *L 0.00666 *D ADDFX1
*I *845:Q O *C 14.7395 63.306 *L 0 *D SDFFRHQX1

*CAP
1 *92:1 2.40906e-06
2 *92:2 0.000262052
3 *92:3 0.000259643
4 *92:4 0.00031105
5 *92:5 0.000482128
6 *92:6 3.47975e-06
7 *92:7 0.000171078
8 *92:8 9.36855e-06
9 *92:9 7.44131e-05
10 *92:10 5.8888e-06
11 *92:11 7.94989e-05
12 *92:13 5.08579e-06

*RES
1 *92:13 *845:Q 1.4
2 *92:11 *92:13 0.0407136
3 *92:10 *989:A 1.4
4 *92:9 *92:11 0.595705
5 *92:8 *92:10 0.0471421
6 *92:7 *92:9 1.4
7 *92:6 *92:8 0.0278567
8 *92:5 *92:7 1.36711
9 *92:5 *92:6 1.4
10 *92:4 *92:5 2.48566
11 *92:3 *92:4 1.4
12 *92:2 *92:3 2.07854
13 *92:1 *92:2 0.0192854
14 *846:SI *92:1 1.4
*END

*D_NET *93 0.00192852

*CONN
*I *845:SI I *C 23.1495 63.886 *L 0.00276 *D SDFFRHQX1
*I *990:A I *C 16.9925 70.1765 *L 0.00666 *D ADDFX1
*I *844:Q O *C 13.3835 71.9455 *L 0 *D SDFFRHQX1

*CAP
1 *93:1 5.08579e-06
2 *93:2 2.38229e-05
3 *93:3 1.87371e-05
4 *93:4 0.000326603
5 *93:5 0.000326603
6 *93:6 0.000310501
7 *93:7 0.000317995
8 *93:8 9.10088e-06
9 *93:9 0.00018663
10 *93:10 1.60604e-06
11 *93:11 0.00018663
12 *93:13 0.000102251
13 *93:14 0.000107605
14 *93:15 5.35346e-06

*RES
1 *93:15 *844:Q 1.4
2 *93:14 *93:15 0.0428565
3 *93:13 *93:14 0.818559
4 *93:11 *93:13 1.4
5 *93:10 *990:A 1.4
6 *93:9 *93:11 1.4914
7 *93:8 *93:10 0.0128569
8 *93:7 *93:9 1.4
9 *93:7 *93:8 0.0599991
10 *93:6 *93:7 2.48568
11 *93:5 *93:6 1.4
12 *93:4 *93:5 2.60994
13 *93:3 *93:4 1.4
14 *93:2 *93:3 0.149998
15 *93:1 *93:2 0.0407136
16 *845:SI *93:1 1.4
*END

*D_NET *94 0.00198311

*CONN
*I *844:SI I *C 21.7935 72.5255 *L 0.00276 *D SDFFRHQX1
*I *991:A I *C 17.7715 78.791 *L 0.00666 *D ADDFX1
*I *843:Q O *C 13.7155 82.8095 *L 0 *D SDFFRHQX1

*CAP
1 *94:1 5.35346e-06
2 *94:2 0.000337413
3 *94:3 0.00033206
4 *94:4 0.000215082
5 *94:5 0.000430165
6 *94:6 2.8951e-06
7 *94:7 0.000215082
8 *94:8 6.31658e-06
9 *94:9 0.0002145
10 *94:10 3.42148e-06
11 *94:11 0.000217659
12 *94:13 3.15829e-06

*RES
1 *94:13 *843:Q 1.4
2 *94:11 *94:13 0.0257148
3 *94:10 *991:A 1.4
4 *94:9 *94:11 1.74647
5 *94:8 *94:10 0.0278577
6 *94:7 *94:9 1.4
7 *94:6 *94:8 0.0235719
8 *94:5 *94:7 1.73996
9 *94:5 *94:6 1.4
10 *94:4 *94:5 1.73996
11 *94:3 *94:4 1.4
12 *94:2 *94:3 2.66139
13 *94:1 *94:2 0.0428565
14 *844:SI *94:1 1.4
*END

*D_NET *95 0.000657696

*CONN
*I *992:A I *C 23.0475 82.406 *L 0.00666 *D ADDFX1
*I *843:SI I *C 22.1255 83.3895 *L 0.00276 *D SDFFRHQX1
*I *842:Q O *C 20.0275 84.7065 *L 0 *D SDFFRHQX1

*CAP
1 *95:1 2.63191e-07
2 *95:2 5.527e-06
3 *95:3 5.26381e-06
4 *95:4 1.5363e-05
5 *95:5 1.5363e-05
6 *95:6 4.57952e-05
7 *95:7 0.00012212
8 *95:8 7.63253e-05
9 *95:9 3.07261e-05
10 *95:10 0.000138267
11 *95:11 3.07261e-05
12 *95:12 0.000138267
13 *95:13 7.89572e-07
14 *95:14 6.31658e-06
15 *95:15 3.94786e-06
16 *95:16 1.28963e-05
17 *95:17 3.15829e-06
18 *95:18 6.57977e-06

*RES
1 *95:18 *842:Q 1.4
2 *95:17 *843:SI 1.4
3 *95:16 *95:18 0.0535726
4 *95:15 *95:17 0.0257148
5 *95:14 *95:16 0.0514297
6 *95:13 *95:15 0.00642871
7 *95:12 *95:14 1.4
8 *95:11 *95:13 1.4
9 *95:10 *95:12 1.11855
10 *95:9 *95:11 0.248566
11 *95:8 *95:10 1.4
12 *95:7 *95:9 1.4
13 *95:7 *95:8 0.621442
14 *95:6 *95:7 0.372865
15 *95:5 *95:6 1.4
16 *95:4 *95:5 0.124283
17 *95:3 *95:4 1.4
18 *95:2 *95:3 0.042858
19 *95:1 *95:2 0.0021429
20 *992:A *95:1 1.4
*END

*D_NET *96 0.000962201

*CONN
*I *842:SI I *C 28.4375 85.2865 *L 0.00276 *D SDFFRHQX1
*I *841:Q O *C 33.215 82.425 *L 0 *D SDFFRHQX1
*I *993:A I *C 33.538 82.04 *L 0.00666 *D ADDFX1

*CAP
1 *96:1 6.45855e-06
2 *96:2 1.26588e-05
3 *96:3 6.2002e-06
4 *96:4 0.00026339
5 *96:5 0.00026339
6 *96:6 0.000153972
7 *96:7 0.000180323
8 *96:8 5.16684e-07
9 *96:9 2.58342e-05
10 *96:11 1.64619e-05
11 *96:12 1.64619e-05
12 *96:13 5.94186e-06
13 *96:14 8.26694e-06
14 *96:15 2.32508e-06

*RES
1 *96:15 *993:A 1.4
2 *96:14 *96:15 0.0192862
3 *96:13 *96:14 0.0492869
4 *96:12 *96:13 1.4
5 *96:11 *96:12 0.124289
6 *96:9 *96:11 1.4
7 *96:8 *841:Q 1.4
8 *96:7 *96:9 0.214291
9 *96:7 *96:8 0.00428582
10 *96:6 *96:7 1.27717
11 *96:5 *96:6 1.4
12 *96:4 *96:5 1.98862
13 *96:3 *96:4 1.4
14 *96:2 *96:3 0.0514298
15 *96:1 *96:2 0.0535727
16 *842:SI *96:1 1.4
*END

*D_NET *97 0.000512576

*CONN
*I *841:SI I *C 41.625 83.005 *L 0.00276 *D SDFFRHQX1
*I *994:A I *C 40.537 80.8605 *L 0.00666 *D ADDFX1
*I *840:Q O *C 39.7005 80.7355 *L 0 *D SDFFRHQX1

*CAP
1 *97:1 5.16684e-07
2 *97:2 4.65015e-06
3 *97:3 4.13347e-06
4 *97:4 4.93857e-05
5 *97:5 4.93857e-05
6 *97:6 0.000119871
7 *97:7 0.000119871
8 *97:8 1.64619e-05
9 *97:9 6.58476e-05
10 *97:10 4.9085e-06
11 *97:11 4.93857e-05
12 *97:12 9.04196e-06
13 *97:13 1.55005e-06
14 *97:14 4.13347e-06
15 *97:15 7.49191e-06
16 *97:17 5.94186e-06

*RES
1 *97:17 *840:Q 1.4
2 *97:15 *97:17 0.0492869
3 *97:14 *994:A 1.4
4 *97:13 *97:15 0.0128575
5 *97:12 *97:14 0.0342866
6 *97:11 *97:13 1.4
7 *97:10 *97:12 0.0407153
8 *97:9 *97:11 0.372866
9 *97:9 *97:10 1.4
10 *97:8 *97:9 0.124289
11 *97:7 *97:8 1.4
12 *97:6 *97:7 0.99431
13 *97:5 *97:6 1.4
14 *97:4 *97:5 0.372866
15 *97:3 *97:4 1.4
16 *97:2 *97:3 0.0342866
17 *97:1 *97:2 0.00428582
18 *841:SI *97:1 1.4
*END

*D_NET *98 0.000266033

*CONN
*I *840:SI I *C 48.1105 81.3155 *L 0.00276 *D SDFFRHQX1
*I *839:Q O *C 48.756 80.6815 *L 0 *D SDFFRHQX1
*I *995:A I *C 49.0255 80.43 *L 0.00666 *D ADDFX1

*CAP
1 *98:1 5.94186e-06
2 *98:2 7.49191e-06
3 *98:3 1.55005e-06
4 *98:4 4.93857e-05
5 *98:5 4.93857e-05
6 *98:6 3.43595e-05
7 *98:7 5.0635e-05
8 *98:8 5.68352e-06
9 *98:9 1.0592e-05
10 *98:11 1.64619e-05
11 *98:12 1.64619e-05
12 *98:13 2.32508e-06
13 *98:14 9.04197e-06
14 *98:15 6.71689e-06

*RES
1 *98:15 *995:A 1.4
2 *98:14 *98:15 0.0557157
3 *98:13 *98:14 0.0192862
4 *98:12 *98:13 1.4
5 *98:11 *98:12 0.124289
6 *98:9 *98:11 1.4
7 *98:8 *839:Q 1.4
8 *98:7 *98:9 0.0878593
9 *98:7 *98:8 0.047144
10 *98:6 *98:7 0.285007
11 *98:5 *98:6 1.4
12 *98:4 *98:5 0.372866
13 *98:3 *98:4 1.4
14 *98:2 *98:3 0.0128575
15 *98:1 *98:2 0.0492869
16 *840:SI *98:1 1.4
*END

*D_NET *99 0.000653424

*CONN
*I *839:SI I *C 57.166 81.2615 *L 0.00276 *D SDFFRHQX1
*I *996:A I *C 61.2755 80.101 *L 0.00666 *D ADDFX1
*I *838:Q O *C 61.2875 80.202 *L 0 *D SDFFRHQX1

*CAP
1 *99:1 5.6922e-06
2 *99:2 7.63272e-05
3 *99:3 7.0635e-05
4 *99:4 0.000229168
5 *99:5 0.000229168
6 *99:6 1.06082e-05
7 *99:7 1.88878e-05
8 *99:8 7.50336e-06
9 *99:9 3.10484e-06
10 *99:10 2.32863e-06

*RES
1 *99:10 *838:Q 1.4
2 *99:9 *996:A 1.4
3 *99:8 *99:10 0.0192854
4 *99:7 *99:9 0.0257138
5 *99:7 *99:8 0.0428564
6 *99:6 *99:7 0.0878556
7 *99:5 *99:6 1.4
8 *99:4 *99:5 1.73996
9 *99:3 *99:4 1.4
10 *99:2 *99:3 0.58499
11 *99:1 *99:2 0.047142
12 *839:SI *99:1 1.4
*END

*D_NET *100 0.00078069

*CONN
*I *838:SI I *C 69.6975 80.782 *L 0.00276 *D SDFFRHQX1
*I *997:A I *C 67.979 80.7355 *L 0.00666 *D ADDFX1
*I *837:Q O *C 66.887 81.5685 *L 0 *D SDFFRHQX1

*CAP
1 *100:1 2.32863e-06
2 *100:2 6.31317e-05
3 *100:3 6.08031e-05
4 *100:4 9.82151e-05
5 *100:5 0.000163692
6 *100:6 5.84744e-05
7 *100:7 6.54767e-05
8 *100:8 5.97681e-05
9 *100:9 0.000101683
10 *100:10 1.29368e-06
11 *100:11 0.000103753
12 *100:13 2.06989e-06

*RES
1 *100:13 *837:Q 1.4
2 *100:11 *100:13 0.0171426
3 *100:10 *997:A 1.4
4 *100:9 *100:11 0.842128
5 *100:8 *100:10 0.0107141
6 *100:7 *100:9 1.4
7 *100:6 *100:8 0.484277
8 *100:5 *100:7 0.497132
9 *100:5 *100:6 1.4
10 *100:4 *100:5 0.745698
11 *100:3 *100:4 1.4
12 *100:2 *100:3 0.503563
13 *100:1 *100:2 0.0192854
14 *838:SI *100:1 1.4
*END

*D_NET *101 0.000359539

*CONN
*I *837:SI I *C 75.297 82.1485 *L 0.00276 *D SDFFRHQX1
*I *998:A I *C 76.191 82.256 *L 0.00666 *D ADDFX1
*I *836:Q O *C 76.0975 84.094 *L 0 *D SDFFRHQX1

*CAP
1 *101:1 2.06989e-06
2 *101:2 1.3713e-05
3 *101:3 1.16431e-05
4 *101:4 4.91075e-05
5 *101:5 4.91075e-05
6 *101:6 1.70766e-05
7 *101:7 0.000115655
8 *101:8 9.65087e-05
9 *101:9 3.36357e-06
10 *101:10 1.29368e-06

*RES
1 *101:10 *836:Q 1.4
2 *101:9 *998:A 1.4
3 *101:8 *101:10 0.0107141
4 *101:7 *101:9 0.0278567
5 *101:7 *101:8 0.788558
6 *101:6 *101:7 0.141426
7 *101:5 *101:6 1.4
8 *101:4 *101:5 0.372849
9 *101:3 *101:4 1.4
10 *101:2 *101:3 0.0964269
11 *101:1 *101:2 0.0171426
12 *837:SI *101:1 1.4
*END

*D_NET *102 0.00077578

*CONN
*I *999:A I *C 85.605 82.328 *L 0.00666 *D ADDFX1
*I *835:Q O *C 87.879 84.307 *L 0 *D SDFFRHQX1
*I *836:SI I *C 84.5075 84.674 *L 0.00276 *D SDFFRHQX1

*CAP
1 *102:1 4.78645e-06
2 *102:2 1.09025e-05
3 *102:3 6.11601e-06
4 *102:4 3.22024e-05
5 *102:5 3.22024e-05
6 *102:6 0.000123384
7 *102:7 0.000123384
8 *102:8 0.000193214
9 *102:9 0.000161012
10 *102:10 3.22024e-05
11 *102:11 1.2232e-05
12 *102:12 7.44558e-06
13 *102:13 1.94117e-05
14 *102:14 8.77515e-06
15 *102:15 7.17967e-06
16 *102:16 1.32957e-06

*RES
1 *102:16 *836:SI 1.4
2 *102:15 *835:Q 1.4
3 *102:14 *102:16 0.0107145
4 *102:13 *102:15 0.0578586
5 *102:12 *102:14 0.0600015
6 *102:11 *102:13 0.0985738
7 *102:10 *102:12 1.4
8 *102:9 *102:11 1.4
9 *102:8 *102:10 0.248566
10 *102:8 *102:9 1.24283
11 *102:7 *102:8 1.4
12 *102:6 *102:7 0.99431
13 *102:5 *102:6 1.4
14 *102:4 *102:5 0.248566
15 *102:3 *102:4 1.4
16 *102:2 *102:3 0.0492869
17 *102:1 *102:2 0.0385724
18 *999:A *102:1 1.4
*END

*D_NET *103 0.00161443

*CONN
*I *835:SI I *C 96.289 84.887 *L 0.00276 *D SDFFRHQX1
*I *834:Q O *C 89.8555 78.459 *L 0 *D SDFFRHQX1
*I *1000:A I *C 89.4835 77.217 *L 0.00666 *D ADDFX1

*CAP
1 *103:1 7.17967e-06
2 *103:2 1.03706e-05
3 *103:3 3.19096e-06
4 *103:4 0.000322024
5 *103:5 0.000322024
6 *103:6 0.000215922
7 *103:7 0.000215922
8 *103:8 4.83036e-05
9 *103:9 4.83036e-05
10 *103:10 0.000122586
11 *103:11 0.000128702
12 *103:12 5.31827e-06
13 *103:13 7.97741e-07
14 *103:15 1.61012e-05
15 *103:16 1.61012e-05
16 *103:17 6.47397e-05
17 *103:18 6.57909e-05
18 *103:19 1.05121e-06

*RES
1 *103:19 *1000:A 1.4
2 *103:18 *103:19 0.00857154
3 *103:17 *103:18 0.52715
4 *103:16 *103:17 1.4
5 *103:15 *103:16 0.124283
6 *103:13 *103:15 1.4
7 *103:12 *834:Q 1.4
8 *103:11 *103:13 0.00642873
9 *103:11 *103:12 0.0428582
10 *103:10 *103:11 0.987881
11 *103:9 *103:10 1.4
12 *103:8 *103:9 0.372849
13 *103:7 *103:8 1.4
14 *103:6 *103:7 1.74004
15 *103:5 *103:6 1.4
16 *103:4 *103:5 2.48566
17 *103:3 *103:4 1.4
18 *103:2 *103:3 0.0257149
19 *103:1 *103:2 0.0578586
20 *835:SI *103:1 1.4
*END

*D_NET *104 0.00288402

*CONN
*I *834:SI I *C 98.2655 79.039 *L 0.00276 *D SDFFRHQX1
*I *1001:A I *C 89.0515 66.1185 *L 0.00666 *D ADDFX1
*I *833:Q O *C 87.3425 63.6625 *L 0 *D SDFFRHQX1

*CAP
1 *104:1 5.31827e-06
2 *104:2 6.11601e-06
3 *104:3 7.97741e-07
4 *104:4 0.000386429
5 *104:5 0.000386429
6 *104:6 0.000686366
7 *104:7 0.000686366
8 *104:8 0.000103465
9 *104:9 0.00020693
10 *104:10 7.62128e-06
11 *104:11 0.000103465
12 *104:12 1.41914e-05
13 *104:13 0.000121941
14 *104:14 6.57007e-06
15 *104:15 0.000121941
16 *104:17 1.47807e-05
17 *104:18 1.47807e-05
18 *104:19 5.25606e-07
19 *104:20 5.25606e-06
20 *104:21 4.73045e-06

*RES
1 *104:21 *833:Q 1.4
2 *104:20 *104:21 0.0385719
3 *104:19 *104:20 0.00428577
4 *104:18 *104:19 1.4
5 *104:17 *104:18 0.124283
6 *104:15 *104:17 1.4
7 *104:14 *1001:A 1.4
8 *104:13 *104:15 0.994299
9 *104:12 *104:14 0.0535721
10 *104:11 *104:13 1.4
11 *104:10 *104:12 0.0621437
12 *104:9 *104:11 0.869982
13 *104:9 *104:10 1.4
14 *104:8 *104:9 0.869982
15 *104:7 *104:8 1.4
16 *104:6 *104:7 5.59293
17 *104:5 *104:6 1.4
18 *104:4 *104:5 2.98279
19 *104:3 *104:4 1.4
20 *104:2 *104:3 0.00642873
21 *104:1 *104:2 0.0428582
22 *834:SI *104:1 1.4
*END

*D_NET *105 0.0017788

*CONN
*I *833:SI I *C 95.7525 64.2425 *L 0.00276 *D SDFFRHQX1
*I *1002:A I *C 88.8615 58.9465 *L 0.00666 *D ADDFX1
*I *832:Q O *C 87.036 57.0545 *L 0 *D SDFFRHQX1

*CAP
1 *105:1 4.73045e-06
2 *105:2 1.94474e-05
3 *105:3 1.4717e-05
4 *105:4 0.000236492
5 *105:5 0.000236492
6 *105:6 0.000320094
7 *105:7 0.000320094
8 *105:8 0.000118246
9 *105:9 0.00020693
10 *105:10 2.68059e-05
11 *105:11 8.86843e-05
12 *105:12 2.81199e-05
13 *105:13 7.25336e-05
14 *105:14 1.31401e-06
15 *105:15 7.83152e-05
16 *105:17 5.78166e-06

*RES
1 *105:17 *832:Q 1.4
2 *105:15 *105:17 0.0471435
3 *105:14 *1002:A 1.4
4 *105:13 *105:15 0.591436
5 *105:12 *105:14 0.0107144
6 *105:11 *105:13 1.4
7 *105:10 *105:12 0.218574
8 *105:9 *105:11 0.745699
9 *105:9 *105:10 1.4
10 *105:8 *105:9 0.994266
11 *105:7 *105:8 1.4
12 *105:6 *105:7 2.61003
13 *105:5 *105:6 1.4
14 *105:4 *105:5 1.98853
15 *105:3 *105:4 1.4
16 *105:2 *105:3 0.120002
17 *105:1 *105:2 0.0385719
18 *833:SI *105:1 1.4
*END

*D_NET *106 0.00227553

*CONN
*I *832:SI I *C 95.446 57.6345 *L 0.00276 *D SDFFRHQX1
*I *1003:A I *C 90.173 46.4055 *L 0.00666 *D ADDFX1
*I *831:Q O *C 88.735 43.4245 *L 0 *D SDFFRHQX1

*CAP
1 *106:1 5.78166e-06
2 *106:2 0.000585197
3 *106:3 0.000579416
4 *106:4 0.000292287
5 *106:5 0.000369204
6 *106:6 7.2723e-06
7 *106:7 7.69175e-05
8 *106:8 1.40251e-05
9 *106:9 0.000162068
10 *106:10 6.75285e-06
11 *106:11 0.000169341
12 *106:13 7.2723e-06

*RES
1 *106:13 *831:Q 1.4
2 *106:11 *106:13 0.0599985
3 *106:10 *1003:A 1.4
4 *106:9 *106:11 1.33711
5 *106:8 *106:10 0.0557129
6 *106:7 *106:9 1.4
7 *106:6 *106:8 0.0599985
8 *106:5 *106:7 0.621439
9 *106:5 *106:6 1.4
10 *106:4 *106:5 2.36147
11 *106:3 *106:4 1.4
12 *106:2 *106:3 4.75283
13 *106:1 *106:2 0.0471435
14 *832:SI *106:1 1.4
*END

*D_NET *107 0.00189842

*CONN
*I *831:SI I *C 97.145 44.0045 *L 0.00276 *D SDFFRHQX1
*I *1004:A I *C 91.121 36.687 *L 0.00666 *D ADDFX1
*I *830:Q O *C 88.684 34.637 *L 0 *D SDFFRHQX1

*CAP
1 *107:1 7.2723e-06
2 *107:2 0.00038751
3 *107:3 0.000380237
4 *107:4 0.00030767
5 *107:5 0.000446122
6 *107:6 4.41532e-06
7 *107:7 0.000138452
8 *107:8 4.41532e-06
9 *107:9 0.000106487
10 *107:11 0.000111162
11 *107:12 4.67505e-06

*RES
1 *107:12 *830:Q 1.4
2 *107:11 *107:12 0.0385705
3 *107:9 *107:11 0.87855
4 *107:8 *1004:A 1.4
5 *107:7 *107:9 1.4
6 *107:6 *107:8 0.0364277
7 *107:5 *107:7 1.11859
8 *107:5 *107:6 1.4
9 *107:4 *107:5 2.48575
10 *107:3 *107:4 1.4
11 *107:2 *107:3 3.13707
12 *107:1 *107:2 0.0599985
13 *831:SI *107:1 1.4
*END

*D_NET *108 0.00355385

*CONN
*I *830:SI I *C 97.094 35.217 *L 0.00276 *D SDFFRHQX1
*I *1005:A1N I *C 94.4045 31.65 *L 0.00169 *D AOI2BB1X1
*I *1007:A I *C 91.7225 32.7705 *L 0.00178 *D AND2X1
*I *829:Q O *C 69.436 35.7315 *L 0 *D SDFFRHQX1

*CAP
1 *108:1 4.67505e-06
2 *108:2 4.67505e-06
3 *108:4 0.000134538
4 *108:5 0.000134538
5 *108:6 0.000138452
6 *108:7 0.000276903
7 *108:8 5.06464e-05
8 *108:9 0.00128021
9 *108:10 5.11658e-05
10 *108:11 7.53202e-06
11 *108:12 0.00114176
12 *108:13 5.1945e-07
13 *108:14 1.06487e-05
14 *108:15 0.00015623
15 *108:17 3.1167e-06
16 *108:18 0.000157236
17 *108:20 1.00631e-06

*RES
1 *108:20 *829:Q 1.4
2 *108:18 *108:20 0.00857122
3 *108:17 *1007:A 1.4
4 *108:15 *108:18 1.33068
5 *108:14 *108:17 0.0257137
6 *108:13 *1005:A1N 1.4
7 *108:12 *108:15 1.4
8 *108:11 *108:14 0.0621413
9 *108:10 *108:13 0.00428561
10 *108:9 *108:12 9.57
11 *108:9 *108:11 1.4
12 *108:8 *108:10 0.417847
13 *108:7 *108:9 1.11859
14 *108:7 *108:8 1.4
15 *108:6 *108:7 1.11859
16 *108:5 *108:6 1.4
17 *108:4 *108:5 1.10997
18 *108:3 *108:4 1.4
19 *108:2 *108:3 1.4
20 *108:1 *108:2 0.0385705
21 *830:SI *108:1 1.4
*END

*D_NET *109 0.00167419

*CONN
*I *540:SI I *C 100.145 22.5065 *L 0.00276 *D SDFFRHQX1
*I *639:B I *C 99.663 13.244 *L 0.00184 *D MX2X1
*I *649:A1 I *C 99.372 13.598 *L 0.00166 *D OAI21XL
*I *650:A I *C 99.1205 13.344 *L 0.00157 *D NAND2XL
*I *734:C I *C 97.656 12.273 *L 0.00278 *D NOR3X1
*I *539:Q O *C 94.886 12.701 *L 0 *D SDFFRHQX1

*CAP
1 *109:1 2.31706e-06
2 *109:2 3.70729e-06
3 *109:3 1.39023e-06
4 *109:4 1.3633e-05
5 *109:5 1.3633e-05
6 *109:6 0.000403168
7 *109:7 0.000403168
8 *109:8 4.08989e-05
9 *109:9 5.45319e-05
10 *109:10 2.45608e-05
11 *109:11 2.7266e-05
12 *109:12 2.68778e-05
13 *109:13 8.10969e-06
14 *109:14 8.17979e-05
15 *109:15 2.31706e-06
16 *109:16 1.0195e-05
17 *109:17 1.99267e-05
18 *109:18 6.81649e-05
19 *109:20 2.08535e-06
20 *109:21 2.38657e-05
21 *109:22 6.95117e-05
22 *109:24 3.93899e-06
23 *109:25 6.95117e-05
24 *109:28 1.89999e-05
25 *109:29 1.5756e-05
26 *109:30 3.24388e-06
27 *109:31 0.000122697
28 *109:33 0.000122697
29 *109:34 3.93899e-06
30 *109:35 8.10969e-06
31 *109:36 4.1707e-06

*RES
1 *109:36 *539:Q 1.4
2 *109:35 *109:36 0.0385708
3 *109:34 *109:35 0.036428
4 *109:33 *109:34 1.4
5 *109:31 *109:33 1.11854
6 *109:30 *734:C 1.4
7 *109:29 *109:31 1.4
8 *109:28 *109:30 0.0299995
9 *109:28 *109:29 0.145712
10 *109:27 *109:28 1.4
11 *109:25 *109:27 1.4
12 *109:24 *650:A 1.4
13 *109:22 *109:25 0.642847
14 *109:21 *109:24 0.036428
15 *109:20 *649:A1 1.4
16 *109:18 *109:22 1.4
17 *109:17 *109:21 0.184283
18 *109:16 *109:20 0.0192854
19 *109:15 *639:B 1.4
20 *109:14 *109:18 0.621413
21 *109:14 *109:17 1.4
22 *109:13 *109:16 0.0749988
23 *109:12 *109:15 0.0214282
24 *109:11 *109:14 0.124283
25 *109:11 *109:13 1.4
26 *109:10 *109:12 0.227139
27 *109:9 *109:11 0.124283
28 *109:9 *109:10 1.4
29 *109:8 *109:9 0.372848
30 *109:7 *109:8 1.4
31 *109:6 *109:7 3.72851
32 *109:5 *109:6 1.4
33 *109:4 *109:5 0.124283
34 *109:3 *109:4 1.4
35 *109:2 *109:3 0.0128569
36 *109:1 *109:2 0.0214282
37 *540:SI *109:1 1.4
*END

*D_NET *110 0.00199885

*CONN
*I *539:SI I *C 103.296 13.281 *L 0.00276 *D SDFFRHQX1
*I *636:A0N I *C 99.2445 11.637 *L 0.00173 *D OAI2BB1X1
*I *646:A0 I *C 98.2135 12.037 *L 0.00267 *D OAI211X1
*I *684:A I *C 99.064 12.229 *L 0.00157 *D NAND2XL
*I *734:A I *C 97.076 11.983 *L 0.00259 *D NOR3X1
*I *538:Q O *C 94.736 11.4285 *L 0 *D SDFFRHQX1

*CAP
1 *110:1 4.1707e-06
2 *110:2 0.00012906
3 *110:3 0.000124889
4 *110:4 8.17979e-05
5 *110:5 0.000190862
6 *110:6 6.71946e-05
7 *110:7 0.000109064
8 *110:8 6.71946e-05
9 *110:9 4.86582e-05
10 *110:10 0.000163596
11 *110:11 5.23655e-05
12 *110:12 0.000163596
13 *110:13 3.70729e-06
14 *110:17 4.26338e-05
15 *110:18 4.03168e-05
16 *110:19 2.31706e-06
17 *110:20 9.54309e-05
18 *110:22 4.08989e-05
19 *110:23 0.000163596
20 *110:24 3.12802e-05
21 *110:25 4.26338e-05
22 *110:26 0.000109064
23 *110:27 3.26705e-05
24 *110:28 4.58777e-05
25 *110:29 6.83531e-05
26 *110:30 1.39023e-06
27 *110:31 3.24388e-06
28 *110:32 7.06702e-05
29 *110:35 2.31706e-06

*RES
1 *110:35 *538:Q 1.4
2 *110:32 *110:35 0.0214282
3 *110:31 *734:A 1.4
4 *110:30 *684:A 1.4
5 *110:29 *110:32 0.632133
6 *110:28 *110:31 0.0299995
7 *110:27 *110:30 0.0128569
8 *110:26 *110:29 1.4
9 *110:25 *110:28 0.394279
10 *110:24 *110:27 0.289281
11 *110:23 *110:26 0.994261
12 *110:23 *110:25 1.4
13 *110:22 *110:24 1.4
14 *110:20 *110:23 0.497131
15 *110:20 *110:22 0.372848
16 *110:19 *646:A0 1.4
17 *110:18 *110:20 1.4
18 *110:17 *110:19 0.0214282
19 *110:17 *110:18 0.372851
20 *110:16 *110:17 1.4
21 *110:14 *110:16 1.4
22 *110:13 *636:A0N 1.4
23 *110:12 *110:14 1.4
24 *110:11 *110:13 0.0342852
25 *110:10 *110:12 1.49139
26 *110:9 *110:11 0.449993
27 *110:8 *110:10 1.4
28 *110:7 *110:9 1.4
29 *110:6 *110:8 0.621419
30 *110:5 *110:7 0.994261
31 *110:5 *110:6 1.4
32 *110:4 *110:5 0.745696
33 *110:3 *110:4 1.4
34 *110:2 *110:3 1.15498
35 *110:1 *110:2 0.0385708
36 *539:SI *110:1 1.4
*END

*D_NET *111 0.00145063

*CONN
*I *538:SI I *C 103.146 12.0085 *L 0.00276 *D SDFFRHQX1
*I *645:A1 I *C 98.0475 11.4185 *L 0.00278 *D OAI211X1
*I *734:B I *C 97.366 11.983 *L 0.00272 *D NOR3X1
*I *537:Q O *C 94.072 10.9785 *L 0 *D SDFFRHQX1
*I *637:A0N I *C 98.6835 11.167 *L 0.00173 *D OAI2BB1X1
*I *756:B I *C 98.682 11.465 *L 0.00167 *D NAND2XL

*CAP
1 *111:1 2.31706e-06
2 *111:2 2.31706e-06
3 *111:4 2.57193e-05
4 *111:5 2.57193e-05
5 *111:6 0.00027266
6 *111:7 0.00027266
7 *111:8 2.68778e-05
8 *111:9 2.68778e-05
9 *111:10 0.000190862
10 *111:11 6.81649e-05
11 *111:12 2.68778e-05
12 *111:13 0.000149963
13 *111:14 2.7266e-05
14 *111:15 2.52559e-05
15 *111:16 5.14386e-05
16 *111:17 4.86582e-06
17 *111:18 1.34389e-05
18 *111:19 3.05851e-05
19 *111:20 2.78047e-05
20 *111:21 6.81649e-05
21 *111:22 6.48775e-06
22 *111:23 1.62194e-05
23 *111:24 5.32923e-06
24 *111:25 3.24388e-06
25 *111:26 6.81649e-05
26 *111:27 1.62194e-06
27 *111:28 2.78047e-06
28 *111:31 4.63411e-07
29 *111:34 3.47558e-06
30 *111:35 3.01217e-06

*RES
1 *111:35 *756:B 1.4
2 *111:34 *111:35 0.0278567
3 *111:31 *111:34 0.00428565
4 *111:28 *637:A0N 1.4
5 *111:27 *537:Q 1.4
6 *111:26 *111:31 1.4
7 *111:25 *734:B 1.4
8 *111:24 *645:A1 1.4
9 *111:23 *111:28 0.0257139
10 *111:22 *111:27 0.0149998
11 *111:21 *111:26 0.621413
12 *111:20 *111:25 0.0299995
13 *111:19 *111:24 0.0492849
14 *111:18 *111:23 0.124284
15 *111:17 *111:22 0.0449993
16 *111:16 *111:21 1.4
17 *111:16 *111:20 0.227139
18 *111:15 *111:19 0.233568
19 *111:14 *111:18 1.4
20 *111:13 *111:17 1.4
21 *111:12 *111:16 0.248567
22 *111:11 *111:15 1.4
23 *111:11 *111:14 0.248565
24 *111:10 *111:13 1.36711
25 *111:10 *111:12 1.4
26 *111:10 *111:11 0.372848
27 *111:9 *111:10 1.4
28 *111:8 *111:9 0.248567
29 *111:7 *111:8 1.4
30 *111:6 *111:7 2.48565
31 *111:5 *111:6 1.4
32 *111:4 *111:5 0.237853
33 *111:3 *111:4 1.4
34 *111:2 *111:3 1.4
35 *111:1 *111:2 0.0214282
36 *538:SI *111:1 1.4
*END

*D_NET *112 0.0015841

*CONN
*I *537:SI I *C 102.482 11.5585 *L 0.00276 *D SDFFRHQX1
*I *645:A0 I *C 97.4675 11.4185 *L 0.00267 *D OAI211X1
*I *642:S0 I *C 96.3375 11.314 *L 0.00372 *D MXI2XL
*I *758:A I *C 95.1205 11.234 *L 0.00163 *D INVXL
*I *640:A0 I *C 93.5935 11.3975 *L 0.00259 *D AOI32X1
*I *756:A I *C 98.102 11.465 *L 0.00157 *D NAND2XL
*I *536:Q O *C 91.2685 10.84 *L 0 *D SDFFRHQX1

*CAP
1 *112:1 1.62194e-06
2 *112:2 1.62194e-06
3 *112:4 8.5731e-06
4 *112:5 8.5731e-06
5 *112:6 0.000231761
6 *112:7 0.000231761
7 *112:8 1.34389e-05
8 *112:9 1.34389e-05
9 *112:10 5.45319e-05
10 *112:11 2.68778e-05
11 *112:12 0.000122697
12 *112:13 2.84998e-05
13 *112:14 3.33656e-05
14 *112:15 0.00013633
15 *112:16 2.7266e-05
16 *112:17 6.95117e-06
17 *112:18 3.73046e-05
18 *112:19 3.70729e-05
19 *112:20 0.000177229
20 *112:21 2.7266e-05
21 *112:22 5.32923e-06
22 *112:23 3.93899e-06
23 *112:24 4.37923e-05
24 *112:25 2.94266e-05
25 *112:26 0.000109064
26 *112:27 4.63411e-07
27 *112:30 6.71946e-06
28 *112:31 3.26705e-05
29 *112:32 5.53776e-05
30 *112:33 3.47558e-06
31 *112:35 3.24388e-06
32 *112:36 5.83898e-05
33 *112:37 3.01217e-06
34 *112:39 3.01217e-06

*RES
1 *112:39 *536:Q 1.4
2 *112:37 *756:A 1.4
3 *112:36 *112:39 0.0278567
4 *112:35 *640:A0 1.4
5 *112:33 *112:37 0.0278567
6 *112:32 *112:36 0.512135
7 *112:31 *112:35 0.0299995
8 *112:30 *758:A 1.4
9 *112:27 *112:33 0.00428565
10 *112:26 *112:32 1.4
11 *112:25 *112:31 0.272139
12 *112:24 *112:30 0.0621419
13 *112:23 *642:S0 1.4
14 *112:22 *645:A0 1.4
15 *112:21 *112:27 1.4
16 *112:20 *112:26 0.994261
17 *112:20 *112:25 1.4
18 *112:19 *112:24 0.342852
19 *112:18 *112:23 0.036428
20 *112:17 *112:22 0.0492849
21 *112:16 *112:21 0.248565
22 *112:15 *112:20 0.621413
23 *112:15 *112:19 1.4
24 *112:14 *112:18 0.308567
25 *112:13 *112:17 0.0149998
26 *112:13 *112:16 1.4
27 *112:12 *112:15 0.621413
28 *112:12 *112:14 1.4
29 *112:11 *112:13 0.248567
30 *112:10 *112:12 0.497131
31 *112:10 *112:11 1.4
32 *112:9 *112:10 1.4
33 *112:8 *112:9 0.124284
34 *112:7 *112:8 1.4
35 *112:6 *112:7 2.11281
36 *112:5 *112:6 1.4
37 *112:4 *112:5 0.0792844
38 *112:3 *112:4 1.4
39 *112:2 *112:3 1.4
40 *112:1 *112:2 0.0149998
41 *537:SI *112:1 1.4
*END

*D_NET *113 0.00209721

*CONN
*I *917:A0 I *C 67.161 36.288 *L 0.00156 *D AOI222XL
*I *572:SI I *C 76.151 35.9245 *L 0.00276 *D SDFFRHQX1
*I *740:B I *C 69.041 38.763 *L 0.00184 *D MX2X1
*I *877:A I *C 68.6255 39.5425 *L 0.00178 *D AND2X1
*I *571:Q O *C 63.834 40.029 *L 0 *D SDFFRHQX1

*CAP
1 *113:1 1.25789e-06
2 *113:2 5.43408e-05
3 *113:3 5.30829e-05
4 *113:4 8.38867e-05
5 *113:5 8.38867e-05
6 *113:6 2.9183e-05
7 *113:7 0.000175098
8 *113:8 0.000218873
9 *113:9 0.000349528
10 *113:10 7.29575e-05
11 *113:11 1.39811e-05
12 *113:12 0.000349528
13 *113:13 1.39811e-05
14 *113:14 1.39811e-05
15 *113:15 5.53471e-06
16 *113:16 0.000237679
17 *113:17 2.51578e-06
18 *113:18 6.7926e-06
19 *113:19 3.11956e-05
20 *113:20 0.000223698
21 *113:21 8.80522e-06
22 *113:22 1.25789e-06
23 *113:23 3.32082e-05
24 *113:24 6.7926e-06
25 *113:25 6.28944e-06
26 *113:27 2.01262e-06
27 *113:28 1.23273e-05
28 *113:31 5.53471e-06

*RES
1 *113:31 *571:Q 1.4
2 *113:28 *113:31 0.0471417
3 *113:27 *877:A 1.4
4 *113:25 *740:B 1.4
5 *113:24 *113:28 0.0578557
6 *113:23 *113:27 0.0171424
7 *113:22 *572:SI 1.4
8 *113:21 *113:25 0.0535701
9 *113:20 *113:24 1.4
10 *113:19 *113:23 0.265708
11 *113:18 *113:22 0.010714
12 *113:17 *113:21 0.021428
13 *113:16 *113:20 1.98852
14 *113:16 *113:19 1.4
15 *113:15 *113:18 0.0471417
16 *113:14 *113:17 1.4
17 *113:13 *113:16 0.124283
18 *113:12 *113:15 1.4
19 *113:11 *113:14 0.124283
20 *113:10 *113:13 1.4
21 *113:9 *113:12 3.10707
22 *113:8 *113:11 1.4
23 *113:8 *113:10 0.621413
24 *113:7 *113:9 1.4
25 *113:7 *113:8 1.24283
26 *113:6 *113:7 0.248565
27 *113:5 *113:6 1.4
28 *113:4 *113:5 0.745696
29 *113:3 *113:4 1.4
30 *113:2 *113:3 0.452132
31 *113:1 *113:2 0.010714
32 *917:A0 *113:1 1.4
*END

*D_NET *114 0.00277324

*CONN
*I *571:SI I *C 72.244 40.609 *L 0.00276 *D SDFFRHQX1
*I *890:A I *C 68.578 54.5125 *L 0.00178 *D AND2X1
*I *916:A0 I *C 68.0885 45.9 *L 0.00156 *D AOI222XL
*I *739:B I *C 69.8345 57.04 *L 0.00184 *D MX2X1
*I *570:Q O *C 64.4375 58.0755 *L 0 *D SDFFRHQX1

*CAP
1 *114:1 5.53471e-06
2 *114:2 1.23273e-05
3 *114:3 6.7926e-06
4 *114:4 1.39811e-05
5 *114:5 1.39811e-05
6 *114:6 0.000204281
7 *114:7 0.000204281
8 *114:8 0.000195736
9 *114:9 0.000195736
10 *114:10 5.8366e-05
11 *114:11 0.000482077
12 *114:12 0.000541307
13 *114:13 2.79622e-05
14 *114:14 0.000131137
15 *114:15 2.37567e-07
16 *114:16 2.79622e-05
17 *114:17 1.37789e-05
18 *114:18 5.83105e-05
19 *114:20 3.27051e-06
20 *114:21 0.000204087
21 *114:22 5.83105e-05
22 *114:23 7.54733e-06
23 *114:24 0.000204087
24 *114:25 2.61324e-06
25 *114:26 4.27682e-06
26 *114:27 3.80108e-05
27 *114:28 6.88945e-06
28 *114:30 4.20494e-05
29 *114:31 4.27621e-06
30 *114:32 4.03864e-06

*RES
1 *114:32 *570:Q 1.4
2 *114:31 *739:B 1.4
3 *114:30 *114:32 0.0364284
4 *114:28 *114:31 0.0385713
5 *114:27 *114:30 0.342856
6 *114:26 *916:A0 1.4
7 *114:25 *114:28 0.0235713
8 *114:24 *114:27 1.4
9 *114:23 *114:26 0.0364277
10 *114:22 *114:25 1.4
11 *114:21 *114:24 1.74004
12 *114:20 *114:23 0.0278565
13 *114:18 *114:22 0.497155
14 *114:17 *114:21 1.4
15 *114:16 *114:20 1.4
16 *114:15 *890:A 1.4
17 *114:14 *114:18 1.4
18 *114:14 *114:17 0.124285
19 *114:13 *114:16 0.248565
20 *114:12 *114:15 0.00214285
21 *114:12 *114:14 1.05857
22 *114:11 *114:13 1.4
23 *114:11 *114:12 3.66422
24 *114:10 *114:11 0.497131
25 *114:9 *114:10 1.4
26 *114:8 *114:9 1.73996
27 *114:7 *114:8 1.4
28 *114:6 *114:7 1.73996
29 *114:5 *114:6 1.4
30 *114:4 *114:5 0.124283
31 *114:3 *114:4 1.4
32 *114:2 *114:3 0.0578557
33 *114:1 *114:2 0.0471417
34 *571:SI *114:1 1.4
*END

*D_NET *115 0.00166812

*CONN
*I *570:SI I *C 72.8475 58.6555 *L 0.00276 *D SDFFRHQX1
*I *738:B I *C 67.728 61.483 *L 0.00184 *D MX2X1
*I *915:A0 I *C 66.75 61.464 *L 0.00156 *D AOI222XL
*I *889:A I *C 66.723 60.5195 *L 0.00178 *D AND2X1
*I *569:Q O *C 61.1055 61.238 *L 0 *D SDFFRHQX1

*CAP
1 *115:1 4.03864e-06
2 *115:2 7.36459e-06
3 *115:3 3.32594e-06
4 *115:4 2.91552e-05
5 *115:5 2.91552e-05
6 *115:6 0.000137789
7 *115:7 0.000137789
8 *115:8 0.000233242
9 *115:9 0.000276975
10 *115:10 6.65189e-06
11 *115:11 0.000335285
12 *115:12 7.36459e-06
13 *115:13 7.60216e-06
14 *115:14 0.000291552
15 *115:15 7.12702e-07
16 *115:16 5.70162e-05
17 *115:17 1.82927e-05
18 *115:19 4.51378e-06
19 *115:20 5.06018e-05
20 *115:21 2.11435e-05
21 *115:23 5.70162e-06
22 *115:24 2.85081e-06

*RES
1 *115:24 *569:Q 1.4
2 *115:23 *889:A 1.4
3 *115:21 *115:24 0.0257142
4 *115:20 *115:23 0.0514284
5 *115:19 *915:A0 1.4
6 *115:17 *115:21 0.164999
7 *115:16 *115:20 0.404998
8 *115:16 *115:19 0.0407141
9 *115:15 *738:B 1.4
10 *115:14 *115:17 1.4
11 *115:13 *115:16 0.0685712
12 *115:12 *115:15 0.00642855
13 *115:11 *115:14 2.48577
14 *115:11 *115:13 1.4
15 *115:10 *115:12 0.0599998
16 *115:9 *115:11 0.372866
17 *115:9 *115:10 1.4
18 *115:8 *115:9 1.98862
19 *115:7 *115:8 1.4
20 *115:6 *115:7 1.24285
21 *115:5 *115:6 1.4
22 *115:4 *115:5 0.248577
23 *115:3 *115:4 1.4
24 *115:2 *115:3 0.0299999
25 *115:1 *115:2 0.0364284
26 *570:SI *115:1 1.4
*END

*D_NET *116 0.00322998

*CONN
*I *569:SI I *C 69.5155 61.818 *L 0.00276 *D SDFFRHQX1
*I *737:B I *C 47.141 62.0795 *L 0.00184 *D MX2X1
*I *891:A I *C 46.593 61.001 *L 0.00178 *D AND2X1
*I *914:A0 I *C 46.508 62.7445 *L 0.00156 *D AOI222XL
*I *568:Q O *C 40.2855 61.085 *L 0 *D SDFFRHQX1

*CAP
1 *116:1 2.85081e-06
2 *116:2 7.36459e-06
3 *116:3 4.51378e-06
4 *116:4 0.00111346
5 *116:5 0.00114158
6 *116:6 7.95407e-06
7 *116:7 2.81247e-05
8 *116:8 8.67717e-06
9 *116:9 5.80888e-05
10 *116:10 7.23097e-07
11 *116:11 4.00114e-05
12 *116:12 4.65193e-05
13 *116:14 2.77187e-05
14 *116:15 0.000309372
15 *116:16 2.41032e-06
16 *116:17 1.68723e-06
17 *116:18 0.000309372
18 *116:21 5.39913e-05
19 *116:22 5.9776e-05
20 *116:23 5.78478e-06

*RES
1 *116:23 *568:Q 1.4
2 *116:22 *116:23 0.0514273
3 *116:21 *116:22 0.479988
4 *116:18 *116:21 1.4
5 *116:17 *914:A0 1.4
6 *116:16 *891:A 1.4
7 *116:15 *116:18 2.73422
8 *116:14 *116:17 0.0149996
9 *116:12 *116:16 0.021428
10 *116:11 *116:15 1.4
11 *116:11 *116:14 0.231423
12 *116:10 *737:B 1.4
13 *116:9 *116:12 0.392133
14 *116:9 *116:11 0.124283
15 *116:8 *116:10 0.00642841
16 *116:7 *116:9 1.4
17 *116:6 *116:8 0.0707126
18 *116:5 *116:7 0.248565
19 *116:5 *116:6 1.4
20 *116:4 *116:5 9.57013
21 *116:3 *116:4 1.4
22 *116:2 *116:3 0.0407141
23 *116:1 *116:2 0.0257142
24 *569:SI *116:1 1.4
*END

*D_NET *117 0.00193807

*CONN
*I *568:SI I *C 48.6955 61.665 *L 0.00276 *D SDFFRHQX1
*I *913:A0 I *C 41.477 60.311 *L 0.00156 *D AOI222XL
*I *567:Q O *C 37.707 56.708 *L 0 *D SDFFRHQX1
*I *745:B I *C 43.1645 58.857 *L 0.00184 *D MX2X1
*I *888:A I *C 42.929 58.193 *L 0.00178 *D AND2X1

*CAP
1 *117:1 5.78478e-06
2 *117:2 3.56728e-05
3 *117:3 2.9888e-05
4 *117:4 0.00023906
5 *117:5 0.00023906
6 *117:6 1.39799e-05
7 *117:7 0.000111839
8 *117:8 9.84366e-05
9 *117:9 9.78592e-05
10 *117:10 0.000281247
11 *117:11 2.81247e-05
12 *117:12 2.14519e-05
13 *117:13 0.000182811
14 *117:14 2.81247e-05
15 *117:15 2.82008e-05
16 *117:16 0.000194995
17 *117:17 3.18163e-05
18 *117:18 6.74891e-06
19 *117:19 0.000201744
20 *117:20 1.10875e-05
21 *117:21 3.20573e-05
22 *117:23 6.74891e-06
23 *117:24 4.82065e-06
24 *117:25 6.50787e-06

*RES
1 *117:25 *888:A 1.4
2 *117:24 *745:B 1.4
3 *117:23 *567:Q 1.4
4 *117:21 *117:25 0.0578557
5 *117:20 *117:24 0.0428561
6 *117:19 *117:23 0.0599985
7 *117:18 *913:A0 1.4
8 *117:17 *117:21 0.227137
9 *117:17 *117:20 0.0557129
10 *117:16 *117:19 1.73353
11 *117:15 *117:18 0.0599985
12 *117:14 *117:17 1.4
13 *117:13 *117:16 1.4
14 *117:12 *117:15 0.19071
15 *117:11 *117:14 0.248565
16 *117:10 *117:13 1.61567
17 *117:10 *117:12 1.4
18 *117:9 *117:11 1.4
19 *117:8 *117:10 0.869979
20 *117:7 *117:9 0.869979
21 *117:7 *117:8 1.4
22 *117:6 *117:7 0.124283
23 *117:5 *117:6 1.4
24 *117:4 *117:5 2.11281
25 *117:3 *117:4 1.4
26 *117:2 *117:3 0.265708
27 *117:1 *117:2 0.0514273
28 *568:SI *117:1 1.4
*END

*D_NET *118 0.00257876

*CONN
*I *567:SI I *C 46.117 57.288 *L 0.00276 *D SDFFRHQX1
*I *719:B I *C 44.0905 42.506 *L 0.00184 *D MX2X1
*I *887:A I *C 43.594 42.0635 *L 0.00178 *D AND2X1
*I *912:A0 I *C 41.256 43.3965 *L 0.00156 *D AOI222XL
*I *566:Q O *C 39.3755 40.0915 *L 0 *D SDFFRHQX1

*CAP
1 *118:1 6.74891e-06
2 *118:2 0.000726026
3 *118:3 0.000719277
4 *118:4 9.6556e-05
5 *118:5 0.000124143
6 *118:6 1.35761e-05
7 *118:7 0.000137937
8 *118:8 2.03642e-05
9 *118:9 3.57001e-05
10 *118:10 0.000206906
11 *118:11 6.78805e-06
12 *118:12 3.82142e-05
13 *118:13 3.11747e-05
14 *118:14 9.6556e-05
15 *118:16 2.51409e-06
16 *118:17 3.46945e-05
17 *118:18 0.000135007
18 *118:20 3.51973e-06
19 *118:21 0.000135007
20 *118:24 4.02255e-06
21 *118:25 4.02255e-06

*RES
1 *118:25 *566:Q 1.4
2 *118:24 *118:25 0.0342866
3 *118:23 *118:24 1.4
4 *118:21 *118:23 1.4
5 *118:20 *912:A0 1.4
6 *118:18 *118:21 1.15074
7 *118:17 *118:20 0.0300007
8 *118:16 *887:A 1.4
9 *118:14 *118:18 1.4
10 *118:13 *118:17 0.265721
11 *118:12 *118:16 0.0214291
12 *118:11 *719:B 1.4
13 *118:10 *118:14 0.869979
14 *118:10 *118:13 1.4
15 *118:9 *118:12 0.304293
16 *118:8 *118:11 0.0578586
17 *118:7 *118:10 0.994261
18 *118:7 *118:9 1.4
19 *118:6 *118:8 0.115717
20 *118:5 *118:7 0.248565
21 *118:5 *118:6 1.4
22 *118:4 *118:5 0.869979
23 *118:3 *118:4 1.4
24 *118:2 *118:3 6.22076
25 *118:1 *118:2 0.0599985
26 *567:SI *118:1 1.4
*END

*D_NET *119 0.00135274

*CONN
*I *566:SI I *C 47.7855 40.6715 *L 0.00276 *D SDFFRHQX1
*I *732:B I *C 46.6625 35.656 *L 0.00184 *D MX2X1
*I *886:A I *C 45.376 36.0945 *L 0.00178 *D AND2X1
*I *925:A0 I *C 44.4025 36.028 *L 0.00156 *D AOI222XL
*I *565:Q O *C 41.8805 33.5845 *L 0 *D SDFFRHQX1

*CAP
1 *119:1 4.02255e-06
2 *119:2 4.02255e-06
3 *119:4 0.000229537
4 *119:5 0.000229537
5 *119:6 5.51748e-05
6 *119:7 0.00011035
7 *119:8 2.26268e-05
8 *119:9 9.6556e-05
9 *119:10 2.86607e-05
10 *119:11 5.02819e-07
11 *119:12 0.000165525
12 *119:13 6.03382e-06
13 *119:14 1.00564e-06
14 *119:15 3.77114e-06
15 *119:16 0.000124143
16 *119:18 5.02819e-07
17 *119:19 9.30214e-06
18 *119:20 0.00012671
19 *119:22 5.531e-06
20 *119:23 0.000127967
21 *119:25 1.25705e-06

*RES
1 *119:25 *565:Q 1.4
2 *119:23 *119:25 0.0107145
3 *119:22 *925:A0 1.4
4 *119:20 *119:23 1.08003
5 *119:19 *119:22 0.047144
6 *119:18 *886:A 1.4
7 *119:16 *119:20 1.4
8 *119:15 *119:19 0.0321436
9 *119:14 *119:18 0.00428582
10 *119:13 *732:B 1.4
11 *119:12 *119:16 1.11854
12 *119:12 *119:15 1.4
13 *119:11 *119:14 0.00428582
14 *119:10 *119:13 0.0514298
15 *119:9 *119:12 0.372848
16 *119:9 *119:11 1.4
17 *119:8 *119:10 0.192862
18 *119:7 *119:9 0.497131
19 *119:7 *119:8 1.4
20 *119:6 *119:7 0.497131
21 *119:5 *119:6 1.4
22 *119:4 *119:5 1.95648
23 *119:3 *119:4 1.4
24 *119:2 *119:3 1.4
25 *119:1 *119:2 0.0342866
26 *566:SI *119:1 1.4
*END

*D_NET *120 0.00271423

*CONN
*I *565:SI I *C 50.2905 34.1645 *L 0.00276 *D SDFFRHQX1
*I *911:A0 I *C 46.923 21.8895 *L 0.00156 *D AOI222XL
*I *885:A I *C 46.4665 24.923 *L 0.00178 *D AND2X1
*I *731:B I *C 48.6865 20.492 *L 0.00184 *D MX2X1
*I *564:Q O *C 43.3515 18.1735 *L 0 *D SDFFRHQX1

*CAP
1 *120:1 1.25705e-06
2 *120:2 5.78241e-06
3 *120:3 4.52537e-06
4 *120:4 1.37937e-05
5 *120:5 1.37937e-05
6 *120:6 0.000469871
7 *120:7 0.000469871
8 *120:8 0.000179203
9 *120:9 0.000195494
10 *120:10 0.000153314
11 *120:11 1.62912e-05
12 *120:12 0.000234326
13 *120:13 6.86089e-06
14 *120:14 4.74984e-06
15 *120:15 7.62614e-05
16 *120:16 1.1083e-05
17 *120:18 0.000114038
18 *120:19 4.22208e-06
19 *120:20 9.7747e-05
20 *120:21 1.62912e-05
21 *120:23 2.37492e-06
22 *120:24 0.00012244
23 *120:25 8.18029e-06
24 *120:26 0.00012244
25 *120:27 5.80536e-06
26 *120:28 0.000179203
27 *120:30 0.000179203
28 *120:31 2.6388e-06
29 *120:32 2.90268e-06
30 *120:33 2.6388e-07

*RES
1 *120:33 *564:Q 1.4
2 *120:32 *120:33 0.00214282
3 *120:31 *120:32 0.0214282
4 *120:30 *120:31 1.4
5 *120:28 *120:30 1.36711
6 *120:27 *731:B 1.4
7 *120:26 *120:28 1.4
8 *120:25 *120:27 0.047142
9 *120:24 *120:26 0.994268
10 *120:23 *120:25 0.0192854
11 *120:21 *120:24 1.4
12 *120:20 *120:23 1.4
13 *120:19 *885:A 1.4
14 *120:18 *120:21 0.124283
15 *120:18 *120:20 0.745696
16 *120:16 *120:19 0.0342851
17 *120:15 *120:18 1.4
18 *120:14 *911:A0 1.4
19 *120:13 *120:16 0.0557133
20 *120:12 *120:15 0.619274
21 *120:12 *120:14 0.0385707
22 *120:11 *120:13 1.4
23 *120:10 *120:12 1.24498
24 *120:9 *120:11 0.124283
25 *120:9 *120:10 1.4
26 *120:8 *120:9 1.36711
27 *120:7 *120:8 1.4
28 *120:6 *120:7 3.97722
29 *120:5 *120:6 1.4
30 *120:4 *120:5 0.124283
31 *120:3 *120:4 1.4
32 *120:2 *120:3 0.0385724
33 *120:1 *120:2 0.0107145
34 *565:SI *120:1 1.4
*END

*D_NET *121 0.00276183

*CONN
*I *564:SI I *C 51.7615 18.7535 *L 0.00276 *D SDFFRHQX1
*I *884:A I *C 44.1785 16.5005 *L 0.00178 *D AND2X1
*I *942:A0 I *C 45.638 11.949 *L 0.00156 *D AOI222XL
*I *730:B I *C 46.0735 12.534 *L 0.00184 *D MX2X1
*I *563:Q O *C 39.4485 10.9165 *L 0 *D SDFFRHQX1

*CAP
1 *121:1 2.6388e-07
2 *121:2 2.90268e-06
3 *121:3 2.6388e-06
4 *121:4 0.00042357
5 *121:5 0.000439862
6 *121:6 0.000116371
7 *121:7 1.62912e-05
8 *121:8 0.000118746
9 *121:9 0.000352016
10 *121:10 2.37492e-06
11 *121:11 0.000413236
12 *121:13 9.7747e-05
13 *121:14 6.12202e-05
14 *121:15 0.000114038
15 *121:16 0.000244368
16 *121:17 1.62912e-05
17 *121:18 4.48596e-06
18 *121:19 0.000244368
19 *121:20 2.6388e-05
20 *121:21 6.33313e-06
21 *121:22 2.11104e-06
22 *121:23 3.21934e-05
23 *121:24 1.84716e-06
24 *121:25 9.23581e-06
25 *121:26 5.80536e-06
26 *121:28 7.12477e-06

*RES
1 *121:28 *563:Q 1.4
2 *121:26 *730:B 1.4
3 *121:25 *121:28 0.0578561
4 *121:24 *942:A0 1.4
5 *121:23 *121:26 0.047142
6 *121:22 *121:25 0.0171425
7 *121:21 *121:24 0.0149997
8 *121:20 *121:23 0.214282
9 *121:19 *121:22 1.4
10 *121:18 *121:21 0.0364279
11 *121:17 *121:20 1.4
12 *121:16 *121:19 1.86424
13 *121:15 *121:18 1.4
14 *121:15 *121:17 0.124283
15 *121:14 *121:16 1.4
16 *121:13 *121:15 0.745696
17 *121:11 *121:14 0.497134
18 *121:11 *121:13 1.4
19 *121:10 *884:A 1.4
20 *121:9 *121:11 2.85852
21 *121:8 *121:10 0.0192854
22 *121:7 *121:9 1.4
23 *121:6 *121:8 0.944983
24 *121:5 *121:7 0.124283
25 *121:5 *121:6 1.4
26 *121:4 *121:5 3.23135
27 *121:3 *121:4 1.4
28 *121:2 *121:3 0.0214282
29 *121:1 *121:2 0.00214282
30 *564:SI *121:1 1.4
*END

*D_NET *122 0.00402659

*CONN
*I *563:SI I *C 47.8585 11.4965 *L 0.00276 *D SDFFRHQX1
*I *956:A0 I *C 35.98 11.2865 *L 0.00156 *D AOI222XL
*I *883:A I *C 32.3165 15.643 *L 0.00178 *D AND2X1
*I *729:B I *C 24.6215 11.7485 *L 0.00184 *D MX2X1
*I *562:Q O *C 17.258 10.713 *L 0 *D SDFFRHQX1

*CAP
1 *122:1 7.12477e-06
2 *122:2 9.23581e-06
3 *122:3 2.11104e-06
4 *122:4 0.000667938
5 *122:5 0.000879723
6 *122:6 8.97193e-06
7 *122:7 0.000211785
8 *122:8 1.55689e-05
9 *122:9 1.53051e-05
10 *122:10 6.59701e-06
11 *122:11 0.000221132
12 *122:13 0.000206882
13 *122:14 0.000436377
14 *122:15 1.05552e-06
15 *122:16 0.000827819
16 *122:18 2.54382e-07
17 *122:19 0.000391442
18 *122:20 6.10517e-06
19 *122:21 5.24027e-05
20 *122:22 5.85079e-06
21 *122:23 5.26571e-05
22 *122:25 2.54382e-07

*RES
1 *122:25 *562:Q 1.4
2 *122:23 *122:25 0.00214283
3 *122:22 *729:B 1.4
4 *122:21 *122:23 0.441422
5 *122:20 *122:22 0.049285
6 *122:19 *122:21 1.4
7 *122:18 *122:20 0.00214283
8 *122:16 *122:19 3.10722
9 *122:16 *122:18 1.4
10 *122:15 *883:A 1.4
11 *122:14 *122:16 3.35567
12 *122:13 *122:15 0.00857127
13 *122:11 *122:14 1.4
14 *122:11 *122:13 1.6714
15 *122:10 *956:A0 1.4
16 *122:9 *122:11 0.124283
17 *122:8 *122:10 0.0535705
18 *122:7 *122:9 1.4
19 *122:6 *122:8 0.0728558
20 *122:5 *122:7 1.61567
21 *122:5 *122:6 1.4
22 *122:4 *122:5 5.09559
23 *122:3 *122:4 1.4
24 *122:2 *122:3 0.0171425
25 *122:1 *122:2 0.0578561
26 *563:SI *122:1 1.4
*END

*D_NET *123 0.00305202

*CONN
*I *562:SI I *C 25.668 11.293 *L 0.00276 *D SDFFRHQX1
*I *728:B I *C 16.0605 13.126 *L 0.00184 *D MX2X1
*I *882:A I *C 19.693 17.2335 *L 0.00178 *D AND2X1
*I *561:Q O *C 9.921 13.4505 *L 0 *D SDFFRHQX1
*I *955:A0 I *C 14.356 11.8665 *L 0.00156 *D AOI222XL

*CAP
1 *123:1 2.54382e-07
2 *123:2 8.39461e-06
3 *123:3 8.14022e-06
4 *123:4 0.00026618
5 *123:5 0.00026618
6 *123:6 0.000206558
7 *123:7 0.000206558
8 *123:8 4.6973e-05
9 *123:9 0.000250523
10 *123:10 8.85249e-05
11 *123:11 0.000281838
12 *123:12 8.85249e-05
13 *123:13 0.000121595
14 *123:14 7.82883e-05
15 *123:15 1.56577e-05
16 *123:16 0.000123375
17 *123:17 0.000118033
18 *123:18 1.56577e-05
19 *123:19 1.78067e-06
20 *123:20 0.000191804
21 *123:21 1.01753e-06
22 *123:23 0.000250523
23 *123:24 7.37708e-05
24 *123:25 7.12269e-06
25 *123:26 0.000250523
26 *123:27 1.56577e-05
27 *123:28 6.10517e-06
28 *123:29 1.29735e-05
29 *123:30 1.56577e-05
30 *123:32 1.7298e-05
31 *123:33 6.10517e-06
32 *123:34 4.32449e-06
33 *123:35 6.10517e-06

*RES
1 *123:35 *955:A0 1.4
2 *123:34 *561:Q 1.4
3 *123:33 *123:35 0.0514278
4 *123:32 *123:34 0.036428
5 *123:30 *123:33 1.4
6 *123:29 *123:32 0.109284
7 *123:28 *882:A 1.4
8 *123:27 *123:30 0.124289
9 *123:26 *123:29 1.4
10 *123:25 *123:28 0.0514278
11 *123:24 *123:27 1.4
12 *123:23 *123:26 1.98862
13 *123:21 *123:25 0.00857131
14 *123:20 *123:24 0.62142
15 *123:20 *123:23 1.4
16 *123:19 *728:B 1.4
17 *123:18 *123:21 1.4
18 *123:17 *123:20 0.994271
19 *123:16 *123:19 0.0149998
20 *123:15 *123:18 0.124289
21 *123:14 *123:17 1.4
22 *123:13 *123:16 1.02427
23 *123:12 *123:15 1.4
24 *123:11 *123:14 0.621444
25 *123:11 *123:13 1.4
26 *123:10 *123:12 0.745704
27 *123:9 *123:11 1.61575
28 *123:9 *123:10 1.4
29 *123:8 *123:9 0.372866
30 *123:7 *123:8 1.4
31 *123:6 *123:7 1.73998
32 *123:5 *123:6 1.4
33 *123:4 *123:5 2.11291
34 *123:3 *123:4 1.4
35 *123:2 *123:3 0.0685704
36 *123:1 *123:2 0.00214283
37 *562:SI *123:1 1.4
*END

*D_NET *124 0.00318917

*CONN
*I *881:A I *C 18.36 26.4335 *L 0.00178 *D AND2X1
*I *742:B I *C 15.752 23.831 *L 0.00184 *D MX2X1
*I *560:Q O *C 10.921 26.1905 *L 0 *D SDFFRHQX1
*I *953:A0 I *C 12.166 17.7755 *L 0.00156 *D AOI222XL
*I *561:SI I *C 18.331 14.0305 *L 0.00276 *D SDFFRHQX1

*CAP
1 *124:1 2.85707e-06
2 *124:2 3.81809e-05
3 *124:3 3.53238e-05
4 *124:4 0.00013329
5 *124:5 0.00013329
6 *124:6 3.01291e-05
7 *124:7 0.000168215
8 *124:8 0.00017772
9 *124:9 0.000140884
10 *124:10 0.00017772
11 *124:11 2.7982e-06
12 *124:12 1.50646e-05
13 *124:14 0.00044309
14 *124:15 7.40501e-05
15 *124:16 0.00061983
16 *124:17 7.40501e-05
17 *124:18 1.56577e-05
18 *124:19 0.000191804
19 *124:20 2.85707e-06
20 *124:21 1.56577e-05
21 *124:22 0.000328811
22 *124:23 5.19468e-06
23 *124:24 3.05258e-06
24 *124:25 0.000328811
25 *124:26 2.33761e-06
26 *124:27 9.66651e-06
27 *124:28 1.78067e-06
28 *124:30 6.61393e-06
29 *124:31 6.10517e-06
30 *124:33 4.32449e-06

*RES
1 *124:33 *561:SI 1.4
2 *124:31 *124:33 0.036428
3 *124:30 *953:A0 1.4
4 *124:28 *124:31 0.0149998
5 *124:27 *124:30 0.0557135
6 *124:26 *560:Q 1.4
7 *124:25 *124:28 1.4
8 *124:24 *124:27 0.0257139
9 *124:23 *124:26 0.0192852
10 *124:22 *124:25 2.61006
11 *124:21 *124:24 1.4
12 *124:20 *124:23 0.0235709
13 *124:19 *124:22 1.4
14 *124:18 *124:21 0.124289
15 *124:17 *124:20 1.4
16 *124:16 *124:19 1.61569
17 *124:16 *124:18 1.4
18 *124:15 *124:17 0.621416
19 *124:14 *124:16 3.60423
20 *124:14 *124:15 1.4
21 *124:12 *124:14 0.124283
22 *124:11 *742:B 1.4
23 *124:10 *124:12 1.4
24 *124:9 *124:11 0.0235711
25 *124:8 *124:10 1.4914
26 *124:7 *124:9 1.15927
27 *124:7 *124:8 1.4
28 *124:6 *124:7 0.248565
29 *124:5 *124:6 1.4
30 *124:4 *124:5 1.11855
31 *124:3 *124:4 1.4
32 *124:2 *124:3 0.291421
33 *124:1 *124:2 0.0235709
34 *881:A *124:1 1.4
*END

*D_NET *125 0.00203863

*CONN
*I *880:A I *C 19.8485 36.1165 *L 0.00178 *D AND2X1
*I *726:B I *C 18.029 35.4105 *L 0.00184 *D MX2X1
*I *954:A0 I *C 14.095 33.372 *L 0.00156 *D AOI222XL
*I *560:SI I *C 19.331 26.7705 *L 0.00276 *D SDFFRHQX1
*I *559:Q O *C 13.566 36.6575 *L 0 *D SDFFRHQX1

*CAP
1 *125:1 7.79202e-07
2 *125:2 1.29867e-06
3 *125:3 5.19468e-07
4 *125:4 1.481e-05
5 *125:5 1.481e-05
6 *125:6 3.01291e-05
7 *125:7 0.000482066
8 *125:8 7.40501e-05
9 *125:9 0.000451937
10 *125:10 0.00028139
11 *125:11 1.481e-05
12 *125:12 5.97388e-06
13 *125:13 0.00022215
14 *125:14 1.481e-05
15 *125:15 1.09088e-05
16 *125:16 0.000111945
17 *125:17 1.481e-05
18 *125:18 2.85707e-06
19 *125:19 4.93495e-06
20 *125:20 0.000113504
21 *125:21 6.02583e-05
22 *125:22 5.19468e-06
23 *125:24 1.5584e-06
24 *125:25 6.02583e-05
25 *125:26 2.33761e-06
26 *125:28 1.481e-05
27 *125:30 1.481e-05
28 *125:31 1.29867e-06
29 *125:32 5.45441e-06
30 *125:33 4.15574e-06

*RES
1 *125:33 *559:Q 1.4
2 *125:32 *125:33 0.0342849
3 *125:31 *125:32 0.010714
4 *125:30 *125:31 1.4
5 *125:28 *125:30 0.124283
6 *125:26 *560:SI 1.4
7 *125:25 *125:28 1.4
8 *125:24 *954:A0 1.4
9 *125:22 *125:26 0.0192852
10 *125:21 *125:25 0.497131
11 *125:20 *125:24 0.0128568
12 *125:19 *726:B 1.4
13 *125:18 *125:22 0.0235709
14 *125:17 *125:21 1.4
15 *125:16 *125:20 0.923549
16 *125:15 *125:19 0.0407133
17 *125:14 *125:18 1.4
18 *125:13 *125:17 0.124283
19 *125:13 *125:16 1.4
20 *125:12 *125:15 0.0492845
21 *125:11 *125:14 0.124283
22 *125:10 *125:13 1.73996
23 *125:10 *125:12 1.4
24 *125:9 *125:11 1.4
25 *125:8 *125:10 0.621416
26 *125:7 *125:9 3.72848
27 *125:7 *125:8 1.4
28 *125:6 *125:7 0.248565
29 *125:5 *125:6 1.4
30 *125:4 *125:5 0.124283
31 *125:3 *125:4 1.4
32 *125:2 *125:3 0.00428561
33 *125:1 *125:2 0.00642841
34 *880:A *125:1 1.4
*END

*D_NET *126 0.00163139

*CONN
*I *559:SI I *C 21.976 37.2375 *L 0.00276 *D SDFFRHQX1
*I *879:A I *C 20.97 42.5945 *L 0.00178 *D AND2X1
*I *743:B I *C 19.2945 42.471 *L 0.00184 *D MX2X1
*I *952:A0 I *C 15.3215 40.9665 *L 0.00156 *D AOI222XL
*I *558:Q O *C 14.7625 43.8075 *L 0 *D SDFFRHQX1

*CAP
1 *126:1 4.15574e-06
2 *126:2 0.000276617
3 *126:3 0.000272461
4 *126:4 4.44301e-05
5 *126:5 0.00013329
6 *126:6 5.71415e-06
7 *126:7 0.0002962
8 *126:8 8.57122e-06
9 *126:9 7.79202e-07
10 *126:10 0.00023696
11 *126:11 2.85707e-06
12 *126:12 1.29867e-06
13 *126:13 7.89591e-05
14 *126:14 2.962e-05
15 *126:16 5.19468e-07
16 *126:17 8.38941e-05
17 *126:18 6.88295e-05
18 *126:20 4.93495e-06
19 *126:21 7.50631e-05
20 *126:23 6.23362e-06

*RES
1 *126:23 *558:Q 1.4
2 *126:21 *126:23 0.0514273
3 *126:20 *952:A0 1.4
4 *126:18 *126:21 0.567843
5 *126:17 *126:20 0.0407133
6 *126:16 *743:B 1.4
7 *126:14 *126:18 1.4
8 *126:13 *126:17 0.651413
9 *126:12 *126:16 0.00428561
10 *126:11 *879:A 1.4
11 *126:10 *126:14 0.248566
12 *126:10 *126:13 1.4
13 *126:9 *126:12 0.00642841
14 *126:8 *126:11 0.0235709
15 *126:7 *126:10 1.73996
16 *126:7 *126:9 1.4
17 *126:6 *126:8 0.0471417
18 *126:5 *126:7 0.745699
19 *126:5 *126:6 1.4
20 *126:4 *126:5 0.37285
21 *126:3 *126:4 1.4
22 *126:2 *126:3 2.2478
23 *126:1 *126:2 0.0342849
24 *559:SI *126:1 1.4
*END

*D_NET *127 0.00268729

*CONN
*I *558:SI I *C 23.1725 44.3875 *L 0.00276 *D SDFFRHQX1
*I *878:A I *C 21.687 56.712 *L 0.00178 *D AND2X1
*I *724:B I *C 19.636 55.7615 *L 0.00184 *D MX2X1
*I *951:A0 I *C 15.419 53.242 *L 0.00156 *D AOI222XL
*I *557:Q O *C 15.169 57.3525 *L 0 *D SDFFRHQX1

*CAP
1 *127:1 6.23362e-06
2 *127:2 0.000637051
3 *127:3 0.000630817
4 *127:4 7.77625e-05
5 *127:5 0.00018663
6 *127:6 1.6328e-05
7 *127:7 0.000326603
8 *127:8 2.06108e-05
9 *127:9 3.45298e-05
10 *127:10 0.000233288
11 *127:11 4.28277e-06
12 *127:12 3.77419e-05
13 *127:13 0.000169437
14 *127:14 1.55525e-05
15 *127:16 3.21208e-06
16 *127:17 0.000174523
17 *127:18 5.08579e-05
18 *127:20 5.08579e-06
19 *127:21 5.38023e-05
20 *127:23 2.9444e-06

*RES
1 *127:23 *557:Q 1.4
2 *127:21 *127:23 0.0235711
3 *127:20 *951:A0 1.4
4 *127:18 *127:21 0.407136
5 *127:17 *127:20 0.0407136
6 *127:16 *724:B 1.4
7 *127:14 *127:18 1.4
8 *127:13 *127:17 1.35641
9 *127:12 *127:16 0.0257139
10 *127:11 *878:A 1.4
11 *127:10 *127:14 0.124283
12 *127:10 *127:13 1.4
13 *127:9 *127:12 0.276424
14 *127:8 *127:11 0.0342852
15 *127:7 *127:10 1.73996
16 *127:7 *127:9 1.4
17 *127:6 *127:8 0.130712
18 *127:5 *127:7 0.869982
19 *127:5 *127:6 1.4
20 *127:4 *127:5 0.621415
21 *127:3 *127:4 1.4
22 *127:2 *127:3 5.14918
23 *127:1 *127:2 0.0514273
24 *558:SI *127:1 1.4
*END

*D_NET *128 0.0020213

*CONN
*I *892:A I *C 21.526 62.9735 *L 0.00178 *D AND2X1
*I *741:B I *C 18.5205 63.111 *L 0.00184 *D MX2X1
*I *950:A0 I *C 14.6885 61.758 *L 0.00156 *D AOI222XL
*I *557:SI I *C 23.579 57.9325 *L 0.00276 *D SDFFRHQX1
*I *556:Q O *C 13.5275 64.185 *L 0 *D SDFFRHQX1

*CAP
1 *128:1 4.28277e-06
2 *128:2 9.63623e-06
3 *128:3 5.35346e-06
4 *128:4 1.55525e-05
5 *128:5 1.55525e-05
6 *128:6 1.5525e-05
7 *128:7 0.0002484
8 *128:8 0.000155525
9 *128:9 0.000232875
10 *128:10 0.000357708
11 *128:11 0.00012442
12 *128:12 1.73987e-05
13 *128:13 0.000233288
14 *128:14 0.00012442
15 *128:15 2.30199e-05
16 *128:16 5.48729e-05
17 *128:17 3.1105e-05
18 *128:18 2.67673e-05
19 *128:19 5.62113e-06
20 *128:20 5.7282e-05
21 *128:21 7.76251e-05
22 *128:22 2.97117e-05
23 *128:24 2.40906e-06
24 *128:25 7.76251e-05
25 *128:26 2.9444e-06
26 *128:28 3.1105e-05
27 *128:30 3.1105e-05
28 *128:31 2.67673e-06
29 *128:32 5.08579e-06
30 *128:33 2.40906e-06

*RES
1 *128:33 *556:Q 1.4
2 *128:32 *128:33 0.0192854
3 *128:31 *128:32 0.0214282
4 *128:30 *128:31 1.4
5 *128:28 *128:30 0.248566
6 *128:26 *557:SI 1.4
7 *128:25 *128:28 1.4
8 *128:24 *950:A0 1.4
9 *128:22 *128:26 0.0235711
10 *128:21 *128:25 0.621419
11 *128:20 *128:24 0.0192854
12 *128:19 *741:B 1.4
13 *128:18 *128:22 0.214282
14 *128:17 *128:21 1.4
15 *128:16 *128:20 0.439279
16 *128:15 *128:19 0.0449993
17 *128:14 *128:18 1.4
18 *128:13 *128:17 0.248566
19 *128:13 *128:16 1.4
20 *128:12 *128:15 0.139284
21 *128:11 *128:14 0.994265
22 *128:10 *128:13 1.61568
23 *128:10 *128:12 1.4
24 *128:9 *128:11 1.4
25 *128:8 *128:10 1.24283
26 *128:7 *128:9 1.86426
27 *128:7 *128:8 1.4
28 *128:6 *128:7 0.124284
29 *128:5 *128:6 1.4
30 *128:4 *128:5 0.124283
31 *128:3 *128:4 1.4
32 *128:2 *128:3 0.0428565
33 *128:1 *128:2 0.0342852
34 *892:A *128:1 1.4
*END

*D_NET *129 0.00321954

*CONN
*I *556:SI I *C 21.9375 64.765 *L 0.00276 *D SDFFRHQX1
*I *861:A I *C 19.7915 70.1955 *L 0.00178 *D AND2X1
*I *949:A0 I *C 12.165 72.239 *L 0.00156 *D AOI222XL
*I *723:B I *C 14.672 75.912 *L 0.00184 *D MX2X1
*I *555:Q O *C 8.927 77.283 *L 0 *D SDFFRHQX1

*CAP
1 *129:1 2.40906e-06
2 *129:2 5.08579e-06
3 *129:3 2.67673e-06
4 *129:4 3.1105e-05
5 *129:5 3.1105e-05
6 *129:6 0.000294976
7 *129:7 0.000294976
8 *129:8 0.000139973
9 *129:9 0.00055989
10 *129:10 6.9595e-06
11 *129:11 0.000419918
12 *129:12 1.09746e-05
13 *129:13 0.000102519
14 *129:14 4.01509e-06
15 *129:15 0.00031746
16 *129:17 0.000223507
17 *129:18 6.9595e-06
18 *129:19 1.5525e-05
19 *129:20 0.000139973
20 *129:22 0.000171078
21 *129:23 0.000139973
22 *129:24 0.000171078
23 *129:25 1.15099e-05
24 *129:26 4.65751e-05
25 *129:27 1.28483e-05
26 *129:28 5.08579e-05
27 *129:29 1.33836e-06
28 *129:30 4.28277e-06

*RES
1 *129:30 *555:Q 1.4
2 *129:29 *723:B 1.4
3 *129:28 *129:30 0.0342852
4 *129:27 *129:29 0.0107141
5 *129:26 *129:28 0.372851
6 *129:25 *129:27 0.0921414
7 *129:24 *129:26 1.4
8 *129:23 *129:25 1.4
9 *129:22 *129:24 1.36711
10 *129:20 *129:23 1.11855
11 *129:19 *129:22 1.4
12 *129:18 *949:A0 1.4
13 *129:17 *129:20 1.4
14 *129:17 *129:19 0.124284
15 *129:15 *129:18 0.0557134
16 *129:15 *129:17 1.66497
17 *129:14 *861:A 1.4
18 *129:13 *129:15 0.820701
19 *129:12 *129:14 0.0321424
20 *129:11 *129:13 1.4
21 *129:10 *129:12 0.0557134
22 *129:9 *129:11 3.35564
23 *129:9 *129:10 1.4
24 *129:8 *129:9 1.11855
25 *129:7 *129:8 1.4
26 *129:6 *129:7 2.36139
27 *129:5 *129:6 1.4
28 *129:4 *129:5 0.248566
29 *129:3 *129:4 1.4
30 *129:2 *129:3 0.0214282
31 *129:1 *129:2 0.0192854
32 *556:SI *129:1 1.4
*END

*D_NET *130 0.00239272

*CONN
*I *555:SI I *C 17.337 77.863 *L 0.00276 *D SDFFRHQX1
*I *874:A I *C 19.0865 80.7385 *L 0.00178 *D AND2X1
*I *744:B I *C 14.2565 87.8745 *L 0.00184 *D MX2X1
*I *948:A0 I *C 11.2785 87.325 *L 0.00156 *D AOI222XL
*I *554:Q O *C 9.49 88.5255 *L 0 *D SDFFRHQX1

*CAP
1 *130:1 4.28277e-06
2 *130:2 4.28277e-06
3 *130:3 3.1105e-05
4 *130:4 3.1105e-05
5 *130:5 0.000137775
6 *130:6 0.000137775
7 *130:7 1.5363e-05
8 *130:8 0.000122904
9 *130:9 0.000396892
10 *130:10 0.000107541
11 *130:11 0.000396892
12 *130:12 1.39491e-05
13 *130:13 0.000138267
14 *130:14 1.86865e-05
15 *130:15 0.000307261
16 *130:16 4.73743e-06
17 *130:17 7.36934e-06
18 *130:18 0.000261172
19 *130:20 1.26332e-05
20 *130:21 3.63203e-05
21 *130:22 9.21782e-05
22 *130:23 5.26381e-06
23 *130:24 4.23737e-05
24 *130:25 2.68454e-05
25 *130:27 6.05339e-06
26 *130:28 3.02669e-05
27 *130:30 3.42148e-06

*RES
1 *130:30 *554:Q 1.4
2 *130:28 *130:30 0.0278577
3 *130:27 *948:A0 1.4
4 *130:25 *130:28 0.218576
5 *130:24 *130:27 0.0492868
6 *130:23 *744:B 1.4
7 *130:22 *130:25 1.4
8 *130:21 *130:24 0.295721
9 *130:20 *130:23 0.042858
10 *130:18 *130:22 0.745699
11 *130:18 *130:21 1.4
12 *130:17 *130:20 0.0600013
13 *130:16 *874:A 1.4
14 *130:15 *130:18 1.36711
15 *130:15 *130:17 1.4
16 *130:14 *130:16 0.0385722
17 *130:13 *130:15 1.11855
18 *130:12 *130:14 0.113574
19 *130:11 *130:13 1.4
20 *130:10 *130:12 1.4
21 *130:9 *130:11 3.2315
22 *130:8 *130:10 0.869982
23 *130:8 *130:9 1.4
24 *130:7 *130:8 0.124283
25 *130:6 *130:7 1.4
26 *130:5 *130:6 1.11859
27 *130:4 *130:5 1.4
28 *130:3 *130:4 0.248566
29 *130:2 *130:3 1.4
30 *130:1 *130:2 0.0342852
31 *555:SI *130:1 1.4
*END

*D_NET *131 0.00206883

*CONN
*I *875:A I *C 25.606 83.937 *L 0.00178 *D AND2X1
*I *722:B I *C 22.5255 89.846 *L 0.00184 *D MX2X1
*I *553:Q O *C 19.905 89.4145 *L 0 *D SDFFRHQX1
*I *554:SI I *C 17.9 89.1055 *L 0.00276 *D SDFFRHQX1
*I *947:A0 I *C 16.1395 91.0525 *L 0.00156 *D AOI222XL

*CAP
1 *131:1 3.15829e-06
2 *131:2 0.000340042
3 *131:3 0.000336884
4 *131:4 0.000168993
5 *131:5 0.000307261
6 *131:6 2.57927e-05
7 *131:7 0.000138267
8 *131:8 2.84246e-05
9 *131:9 4.57952e-05
10 *131:10 2.63191e-06
11 *131:11 4.84271e-05
12 *131:13 0.000107541
13 *131:14 4.73743e-06
14 *131:15 0.000199719
15 *131:16 2.10553e-06
16 *131:17 1.89497e-05
17 *131:18 9.21782e-05
18 *131:20 2.23712e-05
19 *131:21 8.36946e-05
20 *131:22 3.42148e-06
21 *131:23 8.60633e-05
22 *131:25 2.36872e-06

*RES
1 *131:25 *947:A0 1.4
2 *131:23 *131:25 0.0192861
3 *131:22 *554:SI 1.4
4 *131:21 *131:23 0.681443
5 *131:20 *131:22 0.0278577
6 *131:18 *131:21 1.4
7 *131:17 *131:20 0.154289
8 *131:16 *553:Q 1.4
9 *131:15 *131:18 0.745699
10 *131:15 *131:17 1.4
11 *131:14 *131:16 0.0171432
12 *131:13 *131:15 0.869982
13 *131:11 *131:14 0.021429
14 *131:11 *131:13 1.4
15 *131:10 *722:B 1.4
16 *131:9 *131:11 0.372865
17 *131:8 *131:10 0.021429
18 *131:7 *131:9 1.4
19 *131:6 *131:8 0.210004
20 *131:5 *131:7 1.11855
21 *131:5 *131:6 1.4
22 *131:4 *131:5 1.36711
23 *131:3 *131:4 1.4
24 *131:2 *131:3 2.74292
25 *131:1 *131:2 0.0257148
26 *875:A *131:1 1.4
*END

*D_NET *132 0.00213306

*CONN
*I *553:SI I *C 28.315 89.9945 *L 0.00276 *D SDFFRHQX1
*I *946:A0 I *C 33.0045 89.648 *L 0.00156 *D AOI222XL
*I *552:Q O *C 33.771 84.8855 *L 0 *D SDFFRHQX1
*I *721:B I *C 37.0435 86.493 *L 0.00184 *D MX2X1
*I *873:A I *C 37.1775 81.9385 *L 0.00178 *D AND2X1

*CAP
1 *132:1 2.06673e-06
2 *132:2 1.9634e-05
3 *132:3 1.75672e-05
4 *132:4 0.00026339
5 *132:5 0.00026339
6 *132:6 3.53928e-05
7 *132:7 0.000289343
8 *132:8 4.65015e-06
9 *132:9 0.0002493
10 *132:11 4.93857e-05
11 *132:12 0.000230466
12 *132:13 3.1001e-06
13 *132:14 0.000197543
14 *132:15 3.87513e-06
15 *132:16 1.64619e-05
16 *132:17 8.62862e-05
17 *132:18 7.75026e-07
18 *132:19 0.000149063
19 *132:20 8.9903e-05
20 *132:22 0.000153455
21 *132:23 3.61679e-06
22 *132:24 4.39181e-06

*RES
1 *132:24 *873:A 1.4
2 *132:23 *721:B 1.4
3 *132:22 *132:24 0.0364295
4 *132:20 *132:23 0.0300007
5 *132:19 *132:22 1.23646
6 *132:18 *552:Q 1.4
7 *132:17 *132:20 0.715732
8 *132:16 *132:19 1.4
9 *132:15 *132:18 0.00642873
10 *132:14 *132:17 1.4
11 *132:14 *132:16 0.124289
12 *132:13 *132:15 0.0257149
13 *132:12 *132:14 1.36718
14 *132:12 *132:13 1.4
15 *132:11 *132:12 0.372866
16 *132:9 *132:11 1.4
17 *132:8 *946:A0 1.4
18 *132:7 *132:9 2.06791
19 *132:7 *132:8 0.0385724
20 *132:6 *132:7 0.293579
21 *132:5 *132:6 1.4
22 *132:4 *132:5 1.98862
23 *132:3 *132:4 1.4
24 *132:2 *132:3 0.145718
25 *132:1 *132:2 0.0171433
26 *553:SI *132:1 1.4
*END

*D_NET *133 0.00169316

*CONN
*I *552:SI I *C 42.181 85.4655 *L 0.00276 *D SDFFRHQX1
*I *725:B I *C 43.9275 83.98 *L 0.00184 *D MX2X1
*I *945:A0 I *C 41.069 87.5695 *L 0.00156 *D AOI222XL
*I *872:A I *C 43.3135 80.446 *L 0.00178 *D AND2X1
*I *551:Q O *C 40.36 82.445 *L 0 *D SDFFRHQX1

*CAP
1 *133:1 7.75026e-07
2 *133:2 3.87513e-06
3 *133:3 3.1001e-06
4 *133:4 6.58476e-05
5 *133:5 6.58476e-05
6 *133:6 7.49191e-05
7 *133:7 0.000164822
8 *133:8 3.29238e-05
9 *133:9 8.9903e-05
10 *133:10 3.29238e-05
11 *133:11 0.000148157
12 *133:12 1.29171e-06
13 *133:13 1.64619e-05
14 *133:14 0.000131695
15 *133:15 1.55005e-06
16 *133:16 8.9903e-05
17 *133:17 1.49838e-05
18 *133:18 2.58342e-07
19 *133:19 8.9903e-05
20 *133:20 0.000276684
21 *133:22 1.64619e-05
22 *133:23 0.000263509
23 *133:24 3.29238e-05
24 *133:25 1.64619e-05
25 *133:26 1.80839e-06
26 *133:27 3.29238e-05
27 *133:28 1.55005e-06
28 *133:30 3.1001e-06
29 *133:31 3.61679e-06
30 *133:32 8.0086e-06
31 *133:33 2.06673e-06
32 *133:34 4.9085e-06

*RES
1 *133:34 *551:Q 1.4
2 *133:33 *872:A 1.4
3 *133:32 *133:34 0.0407153
4 *133:31 *133:33 0.0171433
5 *133:30 *133:32 0.0257149
6 *133:28 *133:31 0.0128575
7 *133:27 *133:30 1.4
8 *133:26 *945:A0 1.4
9 *133:25 *133:28 1.4
10 *133:24 *133:27 0.248578
11 *133:23 *133:26 0.0150004
12 *133:22 *133:25 0.124289
13 *133:20 *133:24 1.4
14 *133:20 *133:23 2.17077
15 *133:19 *133:22 1.4
16 *133:18 *725:B 1.4
17 *133:17 *133:20 0.124289
18 *133:16 *133:19 0.745733
19 *133:15 *133:18 0.00214291
20 *133:14 *133:17 1.4
21 *133:13 *133:16 1.4
22 *133:12 *133:15 0.0107145
23 *133:11 *133:14 0.99431
24 *133:11 *133:13 0.124289
25 *133:10 *133:12 1.4
26 *133:9 *133:11 1.4
27 *133:8 *133:10 0.248578
28 *133:7 *133:9 0.745733
29 *133:7 *133:8 1.4
30 *133:6 *133:7 0.621444
31 *133:5 *133:6 1.4
32 *133:4 *133:5 0.497155
33 *133:3 *133:4 1.4
34 *133:2 *133:3 0.0257149
35 *133:1 *133:2 0.00642873
36 *552:SI *133:1 1.4
*END

*D_NET *134 0.00158081

*CONN
*I *944:A0 I *C 49.589 87.518 *L 0.00156 *D AOI222XL
*I *550:Q O *C 51.6005 82.6015 *L 0 *D SDFFRHQX1
*I *551:SI I *C 48.77 83.025 *L 0.00276 *D SDFFRHQX1
*I *871:A I *C 53.37 80.4145 *L 0.00178 *D AND2X1
*I *727:B I *C 54.134 84.0375 *L 0.00184 *D MX2X1

*CAP
1 *134:1 7.49191e-06
2 *134:2 1.18837e-05
3 *134:3 4.39181e-06
4 *134:4 1.64619e-05
5 *134:5 1.64619e-05
6 *134:6 0.000224757
7 *134:7 0.000224757
8 *134:8 0.000148157
9 *134:9 9.87713e-05
10 *134:10 4.93857e-05
11 *134:11 2.50592e-05
12 *134:12 3.1001e-06
13 *134:13 3.64262e-05
14 *134:14 8.0086e-06
15 *134:15 6.45855e-06
16 *134:16 4.9085e-06
17 *134:17 4.9085e-06
18 *134:19 0.000114816
19 *134:21 0.000147554
20 *134:22 3.27383e-05
21 *134:23 0.000108152
22 *134:24 7.94321e-05
23 *134:25 0.000115138
24 *134:26 8.20194e-05
25 *134:27 6.98588e-06
26 *134:28 2.58736e-06

*RES
1 *134:28 *727:B 1.4
2 *134:27 *871:A 1.4
3 *134:26 *134:28 0.0214282
4 *134:25 *134:27 0.0578561
5 *134:24 *134:26 0.657846
6 *134:23 *134:25 0.895699
7 *134:22 *134:24 1.4
8 *134:21 *134:23 1.4
9 *134:21 *134:22 0.248566
10 *134:19 *134:21 0.869995
11 *134:17 *551:SI 1.4
12 *134:16 *134:19 1.4
13 *134:15 *550:Q 1.4
14 *134:14 *134:17 0.0407153
15 *134:13 *134:16 0.0407153
16 *134:13 *134:15 0.0535727
17 *134:12 *134:14 0.0257149
18 *134:11 *134:13 0.207862
19 *134:10 *134:12 1.4
20 *134:9 *134:11 1.4
21 *134:8 *134:10 0.372866
22 *134:8 *134:9 0.745732
23 *134:7 *134:8 1.4
24 *134:6 *134:7 1.86433
25 *134:5 *134:6 1.4
26 *134:4 *134:5 0.124289
27 *134:3 *134:4 1.4
28 *134:2 *134:3 0.0364295
29 *134:1 *134:2 0.0621444
30 *944:A0 *134:1 1.4
*END

*D_NET *135 0.0017121

*CONN
*I *550:SI I *C 60.0105 83.1815 *L 0.00276 *D SDFFRHQX1
*I *943:A0 I *C 62.458 87.152 *L 0.00156 *D AOI222XL
*I *753:B I *C 65.382 82.7025 *L 0.00184 *D MX2X1
*I *870:A I *C 65.283 79.4065 *L 0.00178 *D AND2X1
*I *549:Q O *C 61.818 81.0265 *L 0 *D SDFFRHQX1

*CAP
1 *135:1 6.46841e-06
2 *135:2 1.13844e-05
3 *135:3 4.91599e-06
4 *135:4 0.000147323
5 *135:5 0.000147323
6 *135:6 0.0003154
7 *135:7 0.000212164
8 *135:8 0.000105047
9 *135:9 1.81115e-06
10 *135:10 0.00019643
11 *135:12 0.000163692
12 *135:13 3.27383e-05
13 *135:14 0.000170766
14 *135:15 1.55242e-06
15 *135:16 8.61592e-05
16 *135:17 9.10752e-05
17 *135:18 6.46841e-06
18 *135:19 7.76209e-07
19 *135:20 5.6922e-06
20 *135:21 4.91599e-06

*RES
1 *135:21 *549:Q 1.4
2 *135:20 *870:A 1.4
3 *135:19 *753:B 1.4
4 *135:18 *135:21 0.0407136
5 *135:17 *135:20 0.047142
6 *135:16 *135:19 0.00642846
7 *135:15 *135:18 0.0128569
8 *135:14 *135:17 0.707131
9 *135:14 *135:16 0.707131
10 *135:13 *135:15 1.4
11 *135:12 *135:14 1.4
12 *135:10 *135:13 0.248566
13 *135:10 *135:12 1.24283
14 *135:9 *943:A0 1.4
15 *135:8 *135:10 1.4
16 *135:7 *135:9 0.0149997
17 *135:6 *135:8 0.869985
18 *135:6 *135:7 1.74211
19 *135:5 *135:6 1.4
20 *135:4 *135:5 1.11855
21 *135:3 *135:4 1.4
22 *135:2 *135:3 0.0407136
23 *135:1 *135:2 0.0535705
24 *550:SI *135:1 1.4
*END

*D_NET *136 0.00155762

*CONN
*I *957:A0 I *C 68.6585 88.183 *L 0.00156 *D AOI222XL
*I *752:B I *C 71.264 84.6355 *L 0.00184 *D MX2X1
*I *549:SI I *C 70.228 81.6065 *L 0.00276 *D SDFFRHQX1
*I *869:A I *C 70.3615 79.9855 *L 0.00178 *D AND2X1
*I *548:Q O *C 67.534 83.839 *L 0 *D SDFFRHQX1

*CAP
1 *136:1 3.88105e-06
2 *136:2 1.00907e-05
3 *136:3 6.20967e-06
4 *136:4 1.63692e-05
5 *136:5 1.63692e-05
6 *136:6 0.000195087
7 *136:7 0.000195087
8 *136:8 8.18459e-05
9 *136:9 0.000130953
10 *136:10 4.91075e-05
11 *136:11 3.00134e-05
12 *136:12 5.17473e-06
13 *136:13 0.00015162
14 *136:14 8.79704e-06
15 *136:15 0.000163692
16 *136:16 0.000210353
17 *136:17 3.62231e-06
18 *136:18 0.000163692
19 *136:19 4.91599e-06
20 *136:20 8.56417e-05
21 *136:22 5.95094e-06
22 *136:24 1.81115e-06
23 *136:25 1.16431e-05
24 *136:27 5.6922e-06

*RES
1 *136:27 *548:Q 1.4
2 *136:25 *136:27 0.047142
3 *136:24 *869:A 1.4
4 *136:22 *136:25 0.0492849
5 *136:20 *136:24 0.0149997
6 *136:19 *549:SI 1.4
7 *136:18 *136:22 1.4
8 *136:17 *752:B 1.4
9 *136:16 *136:20 0.694274
10 *136:16 *136:19 0.0407136
11 *136:15 *136:18 1.24283
12 *136:14 *136:17 0.0299995
13 *136:13 *136:16 1.00713
14 *136:13 *136:15 1.4
15 *136:12 *136:14 0.0428564
16 *136:11 *136:13 0.248567
17 *136:10 *136:12 1.4
18 *136:9 *136:11 1.4
19 *136:9 *136:10 0.372849
20 *136:8 *136:9 0.621415
21 *136:7 *136:8 1.4
22 *136:6 *136:7 1.61569
23 *136:5 *136:6 1.4
24 *136:4 *136:5 0.124283
25 *136:3 *136:4 1.4
26 *136:2 *136:3 0.0514277
27 *136:1 *136:2 0.0321423
28 *957:A0 *136:1 1.4
*END

*D_NET *137 0.00200641

*CONN
*I *868:A I *C 77.8445 82.364 *L 0.00178 *D AND2X1
*I *548:SI I *C 75.944 84.419 *L 0.00276 *D SDFFRHQX1
*I *910:A0 I *C 79.1775 90.4985 *L 0.00156 *D AOI222XL
*I *547:Q O *C 81.08 89.087 *L 0 *D SDFFRHQX1
*I *751:B I *C 84.233 89.044 *L 0.00184 *D MX2X1

*CAP
1 *137:1 1.03495e-06
2 *137:2 8.27956e-06
3 *137:3 7.24462e-06
4 *137:4 6.54767e-05
5 *137:5 6.54767e-05
6 *137:6 0.000105047
7 *137:7 0.000345154
8 *137:8 0.000240107
9 *137:9 4.91075e-05
10 *137:10 0.000146385
11 *137:11 4.91075e-05
12 *137:12 0.000242992
13 *137:13 5.95094e-06
14 *137:14 9.66072e-05
15 *137:15 7.04671e-05
16 *137:16 1.16431e-05
17 *137:17 4.78645e-06
18 *137:18 7.76468e-05
19 *137:19 5.6922e-06
20 *137:20 1.67526e-05
21 *137:21 7.17967e-06
22 *137:23 1.32957e-06
23 *137:24 1.06365e-05
24 *137:27 0.000177113
25 *137:28 0.000177113
26 *137:29 8.50924e-06
27 *137:30 9.04107e-06
28 *137:31 5.31827e-07

*RES
1 *137:31 *751:B 1.4
2 *137:30 *137:31 0.00428582
3 *137:29 *137:30 0.0685731
4 *137:28 *137:29 1.4
5 *137:27 *137:28 1.36711
6 *137:24 *137:27 1.4
7 *137:23 *547:Q 1.4
8 *137:21 *910:A0 1.4
9 *137:20 *137:24 0.0857164
10 *137:20 *137:23 0.0107145
11 *137:19 *548:SI 1.4
12 *137:18 *137:21 0.0578586
13 *137:17 *137:20 0.0385724
14 *137:16 *137:19 0.047142
15 *137:15 *137:18 0.567871
16 *137:14 *137:17 1.4
17 *137:13 *137:16 0.0492849
18 *137:12 *137:15 1.4
19 *137:12 *137:14 0.745698
20 *137:11 *137:13 1.4
21 *137:10 *137:12 1.11855
22 *137:9 *137:11 0.372849
23 *137:8 *137:10 1.4
24 *137:7 *137:9 1.4
25 *137:7 *137:8 1.98854
26 *137:6 *137:7 0.869985
27 *137:5 *137:6 1.4
28 *137:4 *137:5 0.497132
29 *137:3 *137:4 1.4
30 *137:2 *137:3 0.059999
31 *137:1 *137:2 0.00857128
32 *868:A *137:1 1.4
*END

*D_NET *138 0.00185199

*CONN
*I *866:A I *C 88.975 83.562 *L 0.00178 *D AND2X1
*I *547:SI I *C 89.49 89.667 *L 0.00276 *D SDFFRHQX1
*I *546:Q O *C 92.592 88.226 *L 0 *D SDFFRHQX1
*I *924:A0 I *C 93.9835 90.7865 *L 0.00156 *D AOI222XL
*I *750:B I *C 96.3605 89.246 *L 0.00184 *D MX2X1

*CAP
1 *138:1 4.78645e-06
2 *138:2 1.03706e-05
3 *138:3 5.58419e-06
4 *138:4 1.61012e-05
5 *138:5 1.61012e-05
6 *138:6 0.000293037
7 *138:7 0.000293037
8 *138:8 1.61012e-05
9 *138:9 0.000193214
10 *138:10 0.000177113
11 *138:11 2.60595e-05
12 *138:12 8.13696e-05
13 *138:13 2.73891e-05
14 *138:14 3.0846e-05
15 *138:15 5.39805e-05
16 *138:16 1.32957e-06
17 *138:17 8.0506e-05
18 *138:18 3.45688e-06
19 *138:20 0.000209316
20 *138:22 0.00012881
21 *138:23 5.47782e-05
22 *138:24 2.71232e-05
23 *138:25 6.11601e-05
24 *138:26 3.05801e-05
25 *138:27 6.38193e-06
26 *138:28 3.45688e-06

*RES
1 *138:28 *750:B 1.4
2 *138:27 *924:A0 1.4
3 *138:26 *138:28 0.0278578
4 *138:25 *138:27 0.0514298
5 *138:24 *138:26 0.218577
6 *138:23 *138:25 0.441439
7 *138:22 *138:24 1.4
8 *138:20 *138:23 1.4
9 *138:20 *138:22 0.994264
10 *138:18 *546:Q 1.4
11 *138:17 *138:20 0.621415
12 *138:16 *547:SI 1.4
13 *138:15 *138:18 0.0278578
14 *138:14 *138:17 1.4
15 *138:13 *138:16 0.0107145
16 *138:12 *138:15 0.407153
17 *138:12 *138:14 0.248577
18 *138:11 *138:13 0.210005
19 *138:10 *138:12 1.4
20 *138:9 *138:11 1.4
21 *138:9 *138:10 1.36711
22 *138:8 *138:9 0.124283
23 *138:7 *138:8 1.4
24 *138:6 *138:7 2.36149
25 *138:5 *138:6 1.4
26 *138:4 *138:5 0.124283
27 *138:3 *138:4 1.4
28 *138:2 *138:3 0.0450011
29 *138:1 *138:2 0.0385724
30 *866:A *138:1 1.4
*END

*D_NET *139 0.00252383

*CONN
*I *546:SI I *C 101.002 88.806 *L 0.00276 *D SDFFRHQX1
*I *749:B I *C 97.857 80.5705 *L 0.00184 *D MX2X1
*I *923:A0 I *C 96.903 85.94 *L 0.00156 *D AOI222XL
*I *545:Q O *C 92.689 77.1655 *L 0 *D SDFFRHQX1
*I *865:A I *C 92.017 76.0275 *L 0.00178 *D AND2X1

*CAP
1 *139:1 3.45688e-06
2 *139:2 2.31345e-05
3 *139:3 1.96776e-05
4 *139:4 0.000177113
5 *139:5 0.000177113
6 *139:6 0.000169653
7 *139:7 0.000457637
8 *139:8 4.83036e-05
9 *139:9 0.000463122
10 *139:10 4.83036e-05
11 *139:11 1.06365e-06
12 *139:12 0.000174074
13 *139:13 2.39322e-06
14 *139:15 0.000266053
15 *139:16 7.7115e-06
16 *139:17 0.000295614
17 *139:18 5.31827e-06
18 *139:19 6.30727e-06
19 *139:20 2.95614e-05
20 *139:22 8.14689e-06
21 *139:23 6.59635e-05
22 *139:24 1.83962e-06
23 *139:25 6.91171e-05
24 *139:27 3.15363e-06

*RES
1 *139:27 *865:A 1.4
2 *139:25 *139:27 0.0257146
3 *139:24 *545:Q 1.4
4 *139:23 *139:25 0.537864
5 *139:22 *139:24 0.0150002
6 *139:20 *139:23 1.4
7 *139:19 *139:22 0.0514292
8 *139:18 *923:A0 1.4
9 *139:17 *139:20 0.248566
10 *139:17 *139:19 1.4
11 *139:16 *139:18 0.0428582
12 *139:15 *139:17 2.2371
13 *139:13 *139:16 0.0192862
14 *139:12 *139:15 1.4
15 *139:11 *749:B 1.4
16 *139:10 *139:13 1.4
17 *139:9 *139:12 1.40789
18 *139:9 *139:11 0.00857164
19 *139:8 *139:10 0.372849
20 *139:7 *139:9 2.32077
21 *139:7 *139:8 1.4
22 *139:6 *139:7 1.36718
23 *139:5 *139:6 1.4
24 *139:4 *139:5 1.36711
25 *139:3 *139:4 1.4
26 *139:2 *139:3 0.158575
27 *139:1 *139:2 0.0278578
28 *546:SI *139:1 1.4
*END

*D_NET *140 0.00320286

*CONN
*I *545:SI I *C 101.099 77.7455 *L 0.00276 *D SDFFRHQX1
*I *922:A0 I *C 94.679 67.2575 *L 0.00156 *D AOI222XL
*I *748:B I *C 93.6085 65.689 *L 0.00184 *D MX2X1
*I *864:A I *C 89.3685 64.8135 *L 0.00178 *D AND2X1
*I *544:Q O *C 87.175 63.215 *L 0 *D SDFFRHQX1

*CAP
1 *140:1 1.83962e-06
2 *140:2 0.000544265
3 *140:3 0.000542425
4 *140:4 0.000325176
5 *140:5 0.000384299
6 *140:6 8.67249e-06
7 *140:7 7.39036e-05
8 *140:8 8.9353e-06
9 *140:9 9.11926e-05
10 *140:10 1.47807e-05
11 *140:11 2.62803e-07
12 *140:12 9.56602e-05
13 *140:13 0.000121941
14 *140:15 4.46765e-06
15 *140:16 0.000121941
16 *140:18 0.000192149
17 *140:19 0.000310395
18 *140:20 1.52426e-05
19 *140:21 0.000118246
20 *140:22 2.02358e-05
21 *140:23 9.93395e-05
22 *140:24 4.99325e-06
23 *140:25 0.000100916
24 *140:27 1.57682e-06

*RES
1 *140:27 *544:Q 1.4
2 *140:25 *140:27 0.0128573
3 *140:24 *864:A 1.4
4 *140:23 *140:25 0.810011
5 *140:22 *140:24 0.0407148
6 *140:21 *140:23 1.4
7 *140:20 *140:22 0.124287
8 *140:19 *140:21 0.994266
9 *140:19 *140:20 1.4
10 *140:18 *140:19 1.61568
11 *140:16 *140:18 1.4
12 *140:15 *748:B 1.4
13 *140:13 *140:16 0.994299
14 *140:12 *140:15 0.036429
15 *140:11 *922:A0 1.4
16 *140:10 *140:13 1.4
17 *140:9 *140:12 0.743581
18 *140:8 *140:11 0.00214289
19 *140:7 *140:10 0.124283
20 *140:7 *140:9 1.4
21 *140:6 *140:8 0.0707152
22 *140:5 *140:7 0.497133
23 *140:5 *140:6 1.4
24 *140:4 *140:5 2.73423
25 *140:3 *140:4 1.4
26 *140:2 *140:3 4.42291
27 *140:1 *140:2 0.0150002
28 *545:SI *140:1 1.4
*END

*D_NET *141 0.00188995

*CONN
*I *544:SI I *C 95.585 63.795 *L 0.00276 *D SDFFRHQX1
*I *921:A0 I *C 92.8335 59.642 *L 0.00156 *D AOI222XL
*I *747:B I *C 92.444 58.8145 *L 0.00184 *D MX2X1
*I *863:A I *C 89.0935 58.9025 *L 0.00178 *D AND2X1
*I *543:Q O *C 86.8965 56.3775 *L 0 *D SDFFRHQX1

*CAP
1 *141:1 1.57682e-06
2 *141:2 8.9353e-06
3 *141:3 7.35848e-06
4 *141:4 1.47807e-05
5 *141:5 1.47807e-05
6 *141:6 0.000228638
7 *141:7 0.000228638
8 *141:8 0.000147807
9 *141:9 0.000177369
10 *141:10 1.76078e-05
11 *141:11 0.000192149
12 *141:12 2.33895e-05
13 *141:13 2.57547e-05
14 *141:14 0.000280834
15 *141:15 5.78166e-06
16 *141:16 2.99595e-05
17 *141:17 2.10242e-05
18 *141:18 0.000118246
19 *141:20 4.20485e-06
20 *141:21 2.52291e-05
21 *141:22 0.00015374
22 *141:24 4.20485e-06
23 *141:25 0.000155842
24 *141:27 2.10242e-06

*RES
1 *141:27 *543:Q 1.4
2 *141:25 *141:27 0.0171431
3 *141:24 *863:A 1.4
4 *141:22 *141:25 1.25359
5 *141:21 *141:24 0.0342862
6 *141:20 *747:B 1.4
7 *141:18 *141:22 1.4
8 *141:17 *141:21 0.171431
9 *141:16 *141:20 0.0342862
10 *141:15 *921:A0 1.4
11 *141:14 *141:18 0.994266
12 *141:14 *141:17 1.4
13 *141:13 *141:16 0.210003
14 *141:12 *141:15 0.0471435
15 *141:11 *141:14 1.36712
16 *141:11 *141:13 1.4
17 *141:10 *141:12 0.143573
18 *141:9 *141:11 0.248566
19 *141:9 *141:10 1.4
20 *141:8 *141:9 1.24283
21 *141:7 *141:8 1.4
22 *141:6 *141:7 1.86431
23 *141:5 *141:6 1.4
24 *141:4 *141:5 0.124283
25 *141:3 *141:4 1.4
26 *141:2 *141:3 0.0600008
27 *141:1 *141:2 0.0128573
28 *544:SI *141:1 1.4
*END

*D_NET *142 0.00297469

*CONN
*I *543:SI I *C 95.3065 56.9575 *L 0.00276 *D SDFFRHQX1
*I *733:B I *C 94.833 43.781 *L 0.00184 *D MX2X1
*I *862:A I *C 91.5565 44.091 *L 0.00178 *D AND2X1
*I *542:Q O *C 89.87 40.4475 *L 0 *D SDFFRHQX1
*I *920:A0 I *C 93.9225 46.753 *L 0.00156 *D AOI222XL

*CAP
1 *142:1 2.10242e-06
2 *142:2 3.41644e-06
3 *142:3 1.31401e-06
4 *142:4 1.47807e-05
5 *142:5 1.47807e-05
6 *142:6 0.000665764
7 *142:7 0.000688879
8 *142:8 0.000107685
9 *142:9 3.03878e-05
10 *142:10 0.000123068
11 *142:11 7.2723e-06
12 *142:12 0.000195833
13 *142:13 7.69175e-05
14 *142:15 0.000195833
15 *142:16 0.000135576
16 *142:17 6.1534e-05
17 *142:18 0.000169219
18 *142:19 0.000135576
19 *142:20 7.01257e-06
20 *142:21 0.000169219
21 *142:22 6.1534e-05
22 *142:23 1.01293e-05
23 *142:24 2.59725e-07
24 *142:25 6.1534e-05
25 *142:26 3.1167e-06
26 *142:27 6.2334e-06
27 *142:28 4.1556e-06
28 *142:30 5.97367e-06
29 *142:31 9.86955e-06
30 *142:33 5.71395e-06

*RES
1 *142:33 *920:A0 1.4
2 *142:31 *142:33 0.0471417
3 *142:30 *542:Q 1.4
4 *142:28 *142:31 0.0342849
5 *142:27 *142:30 0.0492845
6 *142:26 *862:A 1.4
7 *142:25 *142:28 1.4
8 *142:24 *142:27 0.0021428
9 *142:23 *142:26 0.0257137
10 *142:22 *142:25 0.497151
11 *142:21 *142:24 1.4
12 *142:20 *142:23 0.0578557
13 *142:19 *142:22 1.4
14 *142:18 *142:21 1.36717
15 *142:17 *142:20 1.4
16 *142:16 *142:19 1.11854
17 *142:15 *142:18 1.4
18 *142:13 *142:17 0.497151
19 *142:13 *142:16 1.4
20 *142:12 *142:15 1.61567
21 *142:11 *733:B 1.4
22 *142:10 *142:13 0.124288
23 *142:10 *142:12 1.4
24 *142:9 *142:11 0.0599985
25 *142:8 *142:10 0.870014
26 *142:7 *142:9 0.19071
27 *142:7 *142:8 1.4
28 *142:6 *142:7 5.46851
29 *142:5 *142:6 1.4
30 *142:4 *142:5 0.124283
31 *142:3 *142:4 1.4
32 *142:2 *142:3 0.0107144
33 *142:1 *142:2 0.0171431
34 *543:SI *142:1 1.4
*END

*D_NET *143 0.00223986

*CONN
*I *542:SI I *C 98.28 41.0275 *L 0.00276 *D SDFFRHQX1
*I *746:B I *C 95.7905 32.669 *L 0.00184 *D MX2X1
*I *919:A0 I *C 94.0115 35.0025 *L 0.00156 *D AOI222XL
*I *876:A I *C 92.9015 33.1685 *L 0.00178 *D AND2X1
*I *541:Q O *C 90.668 30.183 *L 0 *D SDFFRHQX1

*CAP
1 *143:1 5.97367e-06
2 *143:2 0.000246739
3 *143:3 0.000240765
4 *143:4 0.000123068
5 *143:5 0.000123068
6 *143:6 0.00015064
7 *143:7 0.000193495
8 *143:8 9.2301e-05
9 *143:9 4.57116e-05
10 *143:10 0.000153835
11 *143:11 2.85697e-06
12 *143:12 7.84369e-05
13 *143:13 0.000184602
14 *143:15 8.33717e-05
15 *143:16 1.68821e-05
16 *143:17 0.000123068
17 *143:18 4.93477e-06
18 *143:19 1.92196e-05
19 *143:20 0.000171938
20 *143:22 2.33752e-06
21 *143:23 0.000174275
22 *143:25 2.33752e-06

*RES
1 *143:25 *541:Q 1.4
2 *143:23 *143:25 0.0192852
3 *143:22 *876:A 1.4
4 *143:20 *143:23 1.41854
5 *143:19 *143:22 0.0192852
6 *143:18 *919:A0 1.4
7 *143:17 *143:20 1.4
8 *143:16 *143:19 0.139282
9 *143:15 *143:18 0.0407133
10 *143:13 *143:17 0.994302
11 *143:13 *143:16 1.4
12 *143:12 *143:15 0.647127
13 *143:11 *746:B 1.4
14 *143:10 *143:13 0.497151
15 *143:10 *143:12 1.4
16 *143:9 *143:11 0.0235709
17 *143:8 *143:10 0.745726
18 *143:7 *143:9 0.353563
19 *143:7 *143:8 1.4
20 *143:6 *143:7 1.24283
21 *143:5 *143:6 1.4
22 *143:4 *143:5 0.994302
23 *143:3 *143:4 1.4
24 *143:2 *143:3 1.98638
25 *143:1 *143:2 0.0492845
26 *542:SI *143:1 1.4
*END

*D_NET *144 0.0037277

*CONN
*I *541:SI I *C 99.078 30.763 *L 0.00276 *D SDFFRHQX1
*I *736:B I *C 95.06 26.333 *L 0.00184 *D MX2X1
*I *540:Q O *C 91.735 21.9265 *L 0 *D SDFFRHQX1
*I *867:A I *C 88.0825 26.1475 *L 0.00178 *D AND2X1
*I *918:A0 I *C 79.5065 33.0165 *L 0.00156 *D AOI222XL

*CAP
1 *144:1 2.33752e-06
2 *144:2 8.57092e-06
3 *144:3 6.2334e-06
4 *144:4 4.61505e-05
5 *144:5 4.61505e-05
6 *144:6 0.000225961
7 *144:7 0.000225961
8 *144:8 0.000169219
9 *144:9 0.000338437
10 *144:10 1.0389e-05
11 *144:11 0.000169219
12 *144:12 1.48043e-05
13 *144:13 1.5064e-05
14 *144:14 4.41532e-06
15 *144:15 0.00021607
16 *144:17 0.000199986
17 *144:18 0.000203323
18 *144:19 0.000646107
19 *144:20 2.31706e-06
20 *144:21 4.93477e-06
21 *144:22 0.000446122
22 *144:24 8.57092e-06
23 *144:25 0.000351668
24 *144:26 3.63615e-06
25 *144:27 0.000356862
26 *144:29 5.1945e-06

*RES
1 *144:29 *918:A0 1.4
2 *144:27 *144:29 0.0428561
3 *144:26 *867:A 1.4
4 *144:25 *144:27 2.90136
5 *144:24 *144:26 0.0299993
6 *144:22 *144:25 1.4
7 *144:21 *144:24 0.0407133
8 *144:20 *540:Q 1.4
9 *144:19 *144:22 3.60434
10 *144:19 *144:21 1.4
11 *144:18 *144:20 0.0214282
12 *144:17 *144:19 1.61574
13 *144:15 *144:18 1.8514
14 *144:15 *144:17 1.4
15 *144:14 *736:B 1.4
16 *144:13 *144:15 0.124283
17 *144:12 *144:14 0.0364277
18 *144:11 *144:13 1.4
19 *144:10 *144:12 0.0857122
20 *144:9 *144:11 1.36717
21 *144:9 *144:10 1.4
22 *144:8 *144:9 1.36717
23 *144:7 *144:8 1.4
24 *144:6 *144:7 1.86424
25 *144:5 *144:6 1.4
26 *144:4 *144:5 0.372863
27 *144:3 *144:4 1.4
28 *144:2 *144:3 0.0514273
29 *144:1 *144:2 0.0192852
30 *541:SI *144:1 1.4
*END

*D_NET *145 0.00270556

*CONN
*I *635:SI I *C 71.572 38.7925 *L 0.00276 *D SDFFRHQX1
*I *916:C1 I *C 70.4085 45.9 *L 0.00176 *D AOI222XL
*I *706:A I *C 68.539 56.7025 *L 0.0017 *D MX2X1
*I *634:Q O *C 64.2945 57.8925 *L 0 *D SDFFRHQX1

*CAP
1 *145:1 4.27682e-06
2 *145:2 4.27682e-06
3 *145:4 0.000375354
4 *145:5 0.000375354
5 *145:6 5.59244e-05
6 *145:7 5.59244e-05
7 *145:8 0.000516782
8 *145:9 0.00049892
9 *145:10 2.21388e-05
10 *145:11 8.74657e-05
11 *145:12 4.27682e-06
12 *145:13 0.00030613
13 *145:15 1.4254e-05
14 *145:16 0.000218664
15 *145:17 1.63921e-05
16 *145:18 7.07951e-05
17 *145:19 2.13811e-06
18 *145:20 7.36459e-05
19 *145:22 2.85081e-06

*RES
1 *145:22 *634:Q 1.4
2 *145:20 *145:22 0.0257142
3 *145:19 *706:A 1.4
4 *145:18 *145:20 0.638569
5 *145:17 *145:19 0.0192856
6 *145:16 *145:18 1.4
7 *145:15 *145:17 0.128571
8 *145:13 *145:16 1.86433
9 *145:13 *145:15 1.4
10 *145:12 *916:C1 1.4
11 *145:11 *145:13 0.745732
12 *145:10 *145:12 0.0364277
13 *145:9 *145:11 1.4
14 *145:8 *145:10 0.152139
15 *145:8 *145:9 4.34993
16 *145:7 *145:8 1.4
17 *145:6 *145:7 0.497131
18 *145:5 *145:6 1.4
19 *145:4 *145:5 3.19706
20 *145:3 *145:4 1.4
21 *145:2 *145:3 1.4
22 *145:1 *145:2 0.0364277
23 *635:SI *145:1 1.4
*END

*D_NET *146 0.00158165

*CONN
*I *634:SI I *C 72.7045 58.4725 *L 0.00276 *D SDFFRHQX1
*I *915:C1 I *C 69.07 61.464 *L 0.00176 *D AOI222XL
*I *705:A I *C 66.694 61.4675 *L 0.0017 *D MX2X1
*I *633:Q O *C 61.3075 61.293 *L 0 *D SDFFRHQX1

*CAP
1 *146:1 2.85081e-06
2 *146:2 4.75135e-06
3 *146:3 1.90054e-06
4 *146:4 1.45776e-05
5 *146:5 1.45776e-05
6 *146:6 0.00012401
7 *146:7 0.00012401
8 *146:8 0.000189509
9 *146:9 0.000320708
10 *146:10 1.99557e-05
11 *146:11 0.000393596
12 *146:12 2.44694e-05
13 *146:13 2.01932e-05
14 *146:14 0.000262397
15 *146:15 4.51378e-06
16 *146:16 2.68451e-05
17 *146:17 1.18784e-05
18 *146:19 6.65189e-06
19 *146:20 1.30662e-05
20 *146:22 1.18784e-06

*RES
1 *146:22 *633:Q 1.4
2 *146:20 *146:22 0.0107142
3 *146:19 *705:A 1.4
4 *146:17 *146:20 0.107142
5 *146:16 *146:19 0.0599998
6 *146:15 *915:C1 1.4
7 *146:14 *146:17 1.4
8 *146:13 *146:16 0.182142
9 *146:12 *146:15 0.0407141
10 *146:11 *146:14 2.2372
11 *146:11 *146:13 1.4
12 *146:10 *146:12 0.179999
13 *146:9 *146:11 1.1186
14 *146:9 *146:10 1.4
15 *146:8 *146:9 1.61575
16 *146:7 *146:8 1.4
17 *146:6 *146:7 1.11857
18 *146:5 *146:6 1.4
19 *146:4 *146:5 0.124289
20 *146:3 *146:4 1.4
21 *146:2 *146:3 0.0171428
22 *146:1 *146:2 0.0257142
23 *634:SI *146:1 1.4
*END

*D_NET *147 0.00310475

*CONN
*I *633:SI I *C 69.7175 61.873 *L 0.00276 *D SDFFRHQX1
*I *914:C1 I *C 48.828 62.7445 *L 0.00176 *D AOI222XL
*I *704:A I *C 46.4205 62.2255 *L 0.0017 *D MX2X1
*I *632:Q O *C 40.6645 61.2595 *L 0 *D SDFFRHQX1

*CAP
1 *147:1 1.18784e-06
2 *147:2 1.68673e-05
3 *147:3 1.56794e-05
4 *147:4 0.00104366
5 *147:5 0.00104366
6 *147:6 4.00114e-05
7 *147:7 2.60315e-05
8 *147:8 1.39799e-05
9 *147:10 0.000112499
10 *147:11 1.68723e-06
11 *147:12 0.000393746
12 *147:13 1.68723e-06
13 *147:14 1.4944e-05
14 *147:15 0.000281247
15 *147:17 1.4944e-05
16 *147:18 3.15752e-05
17 *147:20 3.15752e-05
18 *147:21 6.02581e-06
19 *147:23 6.02581e-06
20 *147:24 3.85652e-06
21 *147:26 3.85652e-06

*RES
1 *147:26 *632:Q 1.4
2 *147:24 *147:26 0.0342849
3 *147:23 *704:A 1.4
4 *147:22 *147:24 1.4
5 *147:21 *147:23 0.0535701
6 *147:20 *147:22 1.4
7 *147:19 *147:21 1.4
8 *147:18 *147:20 0.280707
9 *147:17 *147:19 1.4
10 *147:15 *147:18 1.4
11 *147:14 *147:17 0.132854
12 *147:13 *914:C1 1.4
13 *147:12 *147:15 2.48565
14 *147:12 *147:14 1.4
15 *147:11 *147:13 0.0149996
16 *147:10 *147:12 0.994261
17 *147:9 *147:11 1.4
18 *147:8 *147:10 1.4
19 *147:7 *147:9 1.4
20 *147:6 *147:8 0.124283
21 *147:6 *147:7 0.231423
22 *147:5 *147:6 1.4
23 *147:4 *147:5 8.94872
24 *147:3 *147:4 1.4
25 *147:2 *147:3 0.141428
26 *147:1 *147:2 0.0107142
27 *633:SI *147:1 1.4
*END

*D_NET *148 0.00160351

*CONN
*I *632:SI I *C 49.0745 61.8395 *L 0.00276 *D SDFFRHQX1
*I *913:C1 I *C 43.797 60.311 *L 0.00176 *D AOI222XL
*I *703:A I *C 42.141 59.24 *L 0.0017 *D MX2X1
*I *631:Q O *C 37.853 57.227 *L 0 *D SDFFRHQX1

*CAP
1 *148:1 3.85652e-06
2 *148:2 1.42209e-05
3 *148:3 1.03644e-05
4 *148:4 0.000253123
5 *148:5 0.000253123
6 *148:6 6.33915e-05
7 *148:7 0.000104608
8 *148:8 6.74891e-06
9 *148:9 3.44676e-05
10 *148:11 8.43742e-05
11 *148:12 0.000281247
12 *148:13 1.71133e-05
13 *148:14 0.000196873
14 *148:15 1.97647e-05
15 *148:16 0.000111839
16 *148:17 2.65136e-06
17 *148:18 0.000111839
18 *148:20 1.40624e-05
19 *148:21 1.40624e-05
20 *148:22 2.41032e-06
21 *148:23 2.89239e-06
22 *148:24 4.82065e-07

*RES
1 *148:24 *631:Q 1.4
2 *148:23 *148:24 0.00428561
3 *148:22 *148:23 0.021428
4 *148:21 *148:22 1.4
5 *148:20 *148:21 0.124283
6 *148:18 *148:20 1.4
7 *148:17 *703:A 1.4
8 *148:16 *148:18 0.994261
9 *148:15 *148:17 0.0235709
10 *148:14 *148:16 1.4
11 *148:13 *148:15 0.152139
12 *148:12 *148:14 1.73996
13 *148:12 *148:13 1.4
14 *148:11 *148:12 0.745696
15 *148:9 *148:11 1.4
16 *148:8 *913:C1 1.4
17 *148:7 *148:9 0.306421
18 *148:7 *148:8 0.0599985
19 *148:6 *148:7 0.563558
20 *148:5 *148:6 1.4
21 *148:4 *148:5 2.23709
22 *148:3 *148:4 1.4
23 *148:2 *148:3 0.0921406
24 *148:1 *148:2 0.0342849
25 *632:SI *148:1 1.4
*END

*D_NET *149 0.00241223

*CONN
*I *631:SI I *C 46.263 57.807 *L 0.00276 *D SDFFRHQX1
*I *912:C1 I *C 43.576 43.3965 *L 0.00176 *D AOI222XL
*I *686:A I *C 42.8615 42.9535 *L 0.0017 *D MX2X1
*I *630:Q O *C 39.3605 40.472 *L 0 *D SDFFRHQX1

*CAP
1 *149:1 4.82065e-07
2 *149:2 4.82065e-07
3 *149:4 0.00071494
4 *149:5 0.00071494
5 *149:6 0.000124143
6 *149:7 0.000165525
7 *149:8 2.01127e-06
8 *149:9 4.13811e-05
9 *149:10 5.531e-06
10 *149:11 2.01127e-05
11 *149:12 3.51973e-06
12 *149:13 0.000150091
13 *149:15 4.27396e-06
14 *149:16 0.000125705
15 *149:18 0.000165525
16 *149:19 0.000165525
17 *149:20 7.54228e-07
18 *149:21 4.02255e-06
19 *149:22 3.26832e-06

*RES
1 *149:22 *630:Q 1.4
2 *149:21 *149:22 0.0278578
3 *149:20 *149:21 0.00642873
4 *149:19 *149:20 1.4
5 *149:18 *149:19 1.49139
6 *149:16 *149:18 1.4
7 *149:15 *686:A 1.4
8 *149:13 *149:16 1.07145
9 *149:13 *149:15 0.0364295
10 *149:12 *912:C1 1.4
11 *149:11 *149:13 0.171433
12 *149:10 *149:12 0.0300007
13 *149:9 *149:11 1.4
14 *149:8 *149:10 0.0171433
15 *149:7 *149:9 0.372848
16 *149:7 *149:8 1.4
17 *149:6 *149:7 1.11854
18 *149:5 *149:6 1.4
19 *149:4 *149:5 6.19289
20 *149:3 *149:4 1.4
21 *149:2 *149:3 1.4
22 *149:1 *149:2 0.00428561
23 *631:SI *149:1 1.4
*END

*D_NET *150 0.00153784

*CONN
*I *630:SI I *C 47.7705 41.052 *L 0.00276 *D SDFFRHQX1
*I *925:C1 I *C 46.7225 36.028 *L 0.00176 *D AOI222XL
*I *701:A I *C 45.5605 35.859 *L 0.0017 *D MX2X1
*I *629:Q O *C 42.0765 33.715 *L 0 *D SDFFRHQX1

*CAP
1 *150:1 3.26832e-06
2 *150:2 3.16776e-05
3 *150:3 2.84092e-05
4 *150:4 4.13811e-05
5 *150:5 4.13811e-05
6 *150:6 0.000280824
7 *150:7 0.000349962
8 *150:9 6.91376e-05
9 *150:10 5.531e-06
10 *150:11 5.51748e-05
11 *150:12 5.531e-06
12 *150:13 0.000137937
13 *150:15 6.05896e-05
14 *150:16 8.27623e-05
15 *150:17 6.6372e-05
16 *150:18 4.37452e-05
17 *150:19 5.78241e-06
18 *150:20 4.37452e-05
19 *150:22 8.27623e-05
20 *150:23 8.27623e-05
21 *150:24 3.51973e-06
22 *150:25 9.55355e-06
23 *150:26 6.03382e-06

*RES
1 *150:26 *629:Q 1.4
2 *150:25 *150:26 0.0514298
3 *150:24 *150:25 0.0300007
4 *150:23 *150:24 1.4
5 *150:22 *150:23 0.745696
6 *150:20 *150:22 1.4
7 *150:19 *701:A 1.4
8 *150:18 *150:20 0.372866
9 *150:17 *150:19 0.0492869
10 *150:16 *150:18 1.4
11 *150:15 *150:17 0.516441
12 *150:13 *150:16 0.745696
13 *150:13 *150:15 1.4
14 *150:12 *925:C1 1.4
15 *150:11 *150:13 0.497131
16 *150:10 *150:12 0.047144
17 *150:9 *150:11 1.4
18 *150:8 *150:10 1.4
19 *150:7 *150:9 0.5893
20 *150:7 *150:8 1.4
21 *150:6 *150:7 2.39363
22 *150:5 *150:6 1.4
23 *150:4 *150:5 0.372848
24 *150:3 *150:4 1.4
25 *150:2 *150:3 0.242149
26 *150:1 *150:2 0.0278578
27 *630:SI *150:1 1.4
*END

*D_NET *151 0.00313478

*CONN
*I *629:SI I *C 50.4865 34.295 *L 0.00276 *D SDFFRHQX1
*I *911:C1 I *C 49.243 21.8895 *L 0.00176 *D AOI222XL
*I *700:A I *C 47.879 17.428 *L 0.0017 *D MX2X1
*I *628:Q O *C 43.8465 14.7285 *L 0 *D SDFFRHQX1

*CAP
1 *151:1 6.03382e-06
2 *151:2 0.000594102
3 *151:3 0.000588068
4 *151:4 8.14558e-05
5 *151:5 0.000146621
6 *151:6 4.6179e-05
7 *151:7 6.51647e-05
8 *151:8 5.09289e-05
9 *151:9 0.000275491
10 *151:10 4.74984e-06
11 *151:11 0.00028156
12 *151:13 0.00027695
13 *151:14 1.21385e-05
14 *151:15 0.00027695
15 *151:16 6.06925e-06
16 *151:17 0.000153051
17 *151:19 0.000153051
18 *151:20 4.88735e-05
19 *151:21 4.88735e-05
20 *151:22 4.48596e-06
21 *151:23 9.23581e-06
22 *151:24 4.74984e-06

*RES
1 *151:24 *628:Q 1.4
2 *151:23 *151:24 0.0385707
3 *151:22 *151:23 0.0364279
4 *151:21 *151:22 1.4
5 *151:20 *151:21 0.372848
6 *151:19 *151:20 1.4
7 *151:17 *151:19 1.24283
8 *151:16 *700:A 1.4
9 *151:15 *151:17 1.4
10 *151:14 *151:16 0.0492848
11 *151:13 *151:15 2.11281
12 *151:11 *151:14 0.0492848
13 *151:11 *151:13 1.4
14 *151:10 *911:C1 1.4
15 *151:9 *151:11 2.2371
16 *151:8 *151:10 0.0385707
17 *151:7 *151:9 1.4
18 *151:6 *151:8 0.374993
19 *151:5 *151:7 0.497131
20 *151:5 *151:6 1.4
21 *151:4 *151:5 0.621413
22 *151:3 *151:4 1.4
23 *151:2 *151:3 4.94149
24 *151:1 *151:2 0.0514298
25 *629:SI *151:1 1.4
*END

*D_NET *152 0.00214041

*CONN
*I *628:SI I *C 52.2565 15.3085 *L 0.00276 *D SDFFRHQX1
*I *942:C1 I *C 47.958 11.949 *L 0.00176 *D AOI222XL
*I *699:A I *C 45.5765 11.144 *L 0.0017 *D MX2X1
*I *627:Q O *C 40.302 9.174 *L 0 *D SDFFRHQX1

*CAP
1 *152:1 4.38256e-06
2 *152:2 0.000121494
3 *152:3 0.000117112
4 *152:4 0.000243124
5 *152:5 0.000373453
6 *152:6 5.04011e-05
7 *152:7 0.000130329
8 *152:8 5.22483e-05
9 *152:9 9.28858e-05
10 *152:10 1.84716e-06
11 *152:11 0.000204243
12 *152:13 5.2776e-06
13 *152:14 0.00010608
14 *152:16 0.000309532
15 *152:17 0.000309532
16 *152:18 2.11104e-06
17 *152:19 9.23581e-06
18 *152:20 7.12477e-06

*RES
1 *152:20 *627:Q 1.4
2 *152:19 *152:20 0.0578561
3 *152:18 *152:19 0.0171425
4 *152:17 *152:18 1.4
5 *152:16 *152:17 2.36137
6 *152:14 *152:16 1.4
7 *152:13 *699:A 1.4
8 *152:11 *152:14 0.861413
9 *152:11 *152:13 0.0428564
10 *152:10 *942:C1 1.4
11 *152:9 *152:11 0.754272
12 *152:8 *152:10 0.0149997
13 *152:7 *152:9 1.4
14 *152:6 *152:8 0.409278
15 *152:5 *152:7 0.994261
16 *152:5 *152:6 1.4
17 *152:4 *152:5 1.86424
18 *152:3 *152:4 1.4
19 *152:2 *152:3 1.03069
20 *152:1 *152:2 0.0385705
21 *628:SI *152:1 1.4
*END

*D_NET *153 0.00420758

*CONN
*I *627:SI I *C 48.712 9.754 *L 0.00276 *D SDFFRHQX1
*I *956:C1 I *C 38.3 11.2865 *L 0.00176 *D AOI222XL
*I *698:A I *C 20.7475 10.173 *L 0.0017 *D MX2X1
*I *626:Q O *C 14.017 8.633 *L 0 *D SDFFRHQX1

*CAP
1 *153:1 7.12477e-06
2 *153:2 2.03188e-05
3 *153:3 1.3194e-05
4 *153:4 0.000570191
5 *153:5 0.000570191
6 *153:6 8.28584e-05
7 *153:7 7.41503e-05
8 *153:8 1.53051e-05
9 *153:9 6.59701e-06
10 *153:10 0.000982041
11 *153:12 0.00134217
12 *153:13 2.34031e-05
13 *153:14 0.000360126
14 *153:15 2.41663e-05
15 *153:16 5.49465e-05
16 *153:17 7.63146e-07
17 *153:18 5.74903e-05
18 *153:20 2.54382e-06

*RES
1 *153:20 *626:Q 1.4
2 *153:18 *153:20 0.0214283
3 *153:17 *698:A 1.4
4 *153:16 *153:18 0.462851
5 *153:15 *153:17 0.00642848
6 *153:14 *153:16 1.4
7 *153:13 *153:15 0.19714
8 *153:12 *153:14 2.85864
9 *153:12 *153:13 1.4
10 *153:10 *153:12 7.58136
11 *153:9 *956:C1 1.4
12 *153:8 *153:10 1.4
13 *153:7 *153:9 0.0535705
14 *153:6 *153:8 0.124283
15 *153:6 *153:7 0.548561
16 *153:5 *153:6 1.4
17 *153:4 *153:5 4.34989
18 *153:3 *153:4 1.4
19 *153:2 *153:3 0.107141
20 *153:1 *153:2 0.0578561
21 *627:SI *153:1 1.4
*END

*D_NET *154 0.00193134

*CONN
*I *626:SI I *C 22.427 9.213 *L 0.00276 *D SDFFRHQX1
*I *955:C1 I *C 16.676 11.8665 *L 0.00176 *D AOI222XL
*I *697:A I *C 13.11 11.1825 *L 0.0017 *D MX2X1
*I *625:Q O *C 7.74 10.7405 *L 0 *D SDFFRHQX1

*CAP
1 *154:1 2.54382e-06
2 *154:2 1.32279e-05
3 *154:3 1.0684e-05
4 *154:4 0.00026618
5 *154:5 0.00026618
6 *154:6 8.85249e-05
7 *154:7 8.85249e-05
8 *154:8 4.6973e-05
9 *154:9 0.000234865
10 *154:10 3.56135e-05
11 *154:11 0.000485388
12 *154:12 3.56135e-05
13 *154:13 1.01753e-06
14 *154:14 0.000297496
15 *154:16 5.34202e-06
16 *154:17 2.16225e-05
17 *154:18 4.32449e-06
18 *154:19 2.44207e-05
19 *154:21 2.7982e-06

*RES
1 *154:21 *625:Q 1.4
2 *154:19 *154:21 0.0235711
3 *154:18 *697:A 1.4
4 *154:17 *154:19 0.18214
5 *154:16 *154:18 0.036428
6 *154:14 *154:17 1.4
7 *154:13 *154:16 0.00857131
8 *154:12 *955:C1 1.4
9 *154:11 *154:14 2.36149
10 *154:11 *154:13 1.4
11 *154:10 *154:12 0.299996
12 *154:9 *154:11 1.49147
13 *154:9 *154:10 1.4
14 *154:8 *154:9 0.372866
15 *154:7 *154:8 1.4
16 *154:6 *154:7 0.745704
17 *154:5 *154:6 1.4
18 *154:4 *154:5 2.11291
19 *154:3 *154:4 1.4
20 *154:2 *154:3 0.0899987
21 *154:1 *154:2 0.0214283
22 *626:SI *154:1 1.4
*END

*D_NET *155 0.0017532

*CONN
*I *625:SI I *C 16.15 11.3205 *L 0.00276 *D SDFFRHQX1
*I *953:C1 I *C 14.486 17.7755 *L 0.00176 *D AOI222XL
*I *696:A I *C 11.984 18.409 *L 0.0017 *D MX2X1
*I *624:Q O *C 7.691 19.382 *L 0 *D SDFFRHQX1

*CAP
1 *155:1 2.7982e-06
2 *155:2 0.000230979
3 *155:3 0.000228181
4 *155:4 9.3946e-05
5 *155:5 9.3946e-05
6 *155:6 0.000100226
7 *155:7 0.000139401
8 *155:8 3.25609e-05
9 *155:9 6.61393e-06
10 *155:10 0.000125261
11 *155:12 0.000360126
12 *155:13 2.54382e-07
13 *155:14 0.000234865
14 *155:15 2.7982e-06
15 *155:16 4.90957e-05
16 *155:17 2.54382e-06
17 *155:18 4.93501e-05
18 *155:20 2.54382e-07

*RES
1 *155:20 *624:Q 1.4
2 *155:18 *155:20 0.00214283
3 *155:17 *696:A 1.4
4 *155:16 *155:18 0.413565
5 *155:15 *155:17 0.0214283
6 *155:14 *155:16 1.4
7 *155:13 *155:15 0.00214283
8 *155:12 *155:14 1.86433
9 *155:12 *155:13 1.4
10 *155:10 *155:12 0.99431
11 *155:9 *953:C1 1.4
12 *155:8 *155:10 1.4
13 *155:7 *155:9 0.0557135
14 *155:7 *155:8 0.274282
15 *155:6 *155:7 0.844274
16 *155:5 *155:6 1.4
17 *155:4 *155:5 0.745733
18 *155:3 *155:4 1.4
19 *155:2 *155:3 1.92212
20 *155:1 *155:2 0.0235711
21 *625:SI *155:1 1.4
*END

*D_NET *156 0.00263375

*CONN
*I *954:C1 I *C 16.415 33.372 *L 0.00176 *D AOI222XL
*I *624:SI I *C 16.101 19.962 *L 0.00276 *D SDFFRHQX1
*I *695:A I *C 14.406 34.376 *L 0.0017 *D MX2X1
*I *623:Q O *C 10.432 35.707 *L 0 *D SDFFRHQX1

*CAP
1 *156:1 1.5584e-06
2 *156:2 8.05175e-06
3 *156:3 6.49335e-06
4 *156:4 1.481e-05
5 *156:5 8.88601e-05
6 *156:6 0.000696528
7 *156:7 7.40501e-05
8 *156:8 0.000696782
9 *156:9 0.000150646
10 *156:10 2.54382e-07
11 *156:11 0.000150646
12 *156:13 1.481e-05
13 *156:14 0.00022215
14 *156:15 0.000104933
15 *156:16 0.00020734
16 *156:17 0.00010753
17 *156:18 3.58433e-05
18 *156:19 2.59734e-06
19 *156:20 4.28561e-05
20 *156:22 7.01282e-06

*RES
1 *156:22 *623:Q 1.4
2 *156:20 *156:22 0.0578557
3 *156:19 *695:A 1.4
4 *156:18 *156:20 0.295707
5 *156:17 *156:19 0.021428
6 *156:16 *156:18 1.4
7 *156:15 *156:17 0.865693
8 *156:14 *156:16 1.73996
9 *156:14 *156:15 1.4
10 *156:13 *156:14 0.124283
11 *156:11 *156:13 1.4
12 *156:10 *624:SI 1.4
13 *156:9 *156:11 1.24283
14 *156:8 *156:10 0.00214283
15 *156:7 *156:9 1.4
16 *156:6 *156:8 5.8006
17 *156:5 *156:7 0.621416
18 *156:5 *156:6 1.4
19 *156:4 *156:5 0.124283
20 *156:3 *156:4 1.4
21 *156:2 *156:3 0.0535701
22 *156:1 *156:2 0.0128568
23 *954:C1 *156:1 1.4
*END

*D_NET *157 0.0015727

*CONN
*I *623:SI I *C 18.842 36.287 *L 0.00276 *D SDFFRHQX1
*I *952:C1 I *C 17.6415 40.9665 *L 0.00176 *D AOI222XL
*I *694:A I *C 15.6595 42.02 *L 0.0017 *D MX2X1
*I *622:Q O *C 11.4575 43.2925 *L 0 *D SDFFRHQX1

*CAP
1 *157:1 7.01282e-06
2 *157:2 0.000238696
3 *157:3 0.000231683
4 *157:4 4.44301e-05
5 *157:5 5.92401e-05
6 *157:6 6.02583e-05
7 *157:7 1.481e-05
8 *157:8 6.02583e-05
9 *157:9 1.14283e-05
10 *157:10 0.00011848
11 *157:11 1.63632e-05
12 *157:12 0.00032582
13 *157:13 4.93495e-06
14 *157:14 5.97388e-06
15 *157:15 0.00020734
16 *157:17 1.35062e-05
17 *157:18 7.22061e-05
18 *157:19 7.53229e-06
19 *157:20 7.24658e-05
20 *157:22 2.59734e-07

*RES
1 *157:22 *622:Q 1.4
2 *157:20 *157:22 0.0021428
3 *157:19 *694:A 1.4
4 *157:18 *157:20 0.5957
5 *157:17 *157:19 0.0621413
6 *157:15 *157:18 1.4
7 *157:14 *157:17 0.0492845
8 *157:13 *952:C1 1.4
9 *157:12 *157:15 1.73996
10 *157:12 *157:14 1.4
11 *157:11 *157:13 0.0407133
12 *157:10 *157:12 0.994266
13 *157:9 *157:11 0.0942834
14 *157:8 *157:10 1.4
15 *157:7 *157:9 1.4
16 *157:6 *157:8 0.497131
17 *157:5 *157:7 0.124283
18 *157:5 *157:6 1.4
19 *157:4 *157:5 0.37285
20 *157:3 *157:4 1.4
21 *157:2 *157:3 1.91138
22 *157:1 *157:2 0.0578557
23 *623:SI *157:1 1.4
*END

*D_NET *158 0.00244587

*CONN
*I *622:SI I *C 19.8675 43.8725 *L 0.00276 *D SDFFRHQX1
*I *951:C1 I *C 17.739 53.242 *L 0.00176 *D AOI222XL
*I *693:A I *C 15.4055 54.628 *L 0.0017 *D MX2X1
*I *621:Q O *C 10.9055 56.2785 *L 0 *D SDFFRHQX1

*CAP
1 *158:1 2.59734e-07
2 *158:2 0.000487055
3 *158:3 0.000486795
4 *158:4 0.000108868
5 *158:5 0.000233288
6 *158:6 1.33836e-06
7 *158:7 0.00018663
8 *158:8 6.42415e-06
9 *158:9 7.57514e-05
10 *158:10 6.221e-05
11 *158:11 5.08579e-06
12 *158:12 8.16402e-05
13 *158:13 0.00015525
14 *158:15 5.8888e-06
15 *158:16 0.00015525
16 *158:18 0.00018663
17 *158:19 0.00018663
18 *158:20 8.83321e-06
19 *158:21 1.04392e-05
20 *158:22 1.60604e-06

*RES
1 *158:22 *621:Q 1.4
2 *158:21 *158:22 0.0128569
3 *158:20 *158:21 0.0707132
4 *158:19 *158:20 1.4
5 *158:18 *158:19 1.4914
6 *158:16 *158:18 1.4
7 *158:15 *693:A 1.4
8 *158:13 *158:16 1.24284
9 *158:12 *158:15 0.0471421
10 *158:11 *951:C1 1.4
11 *158:10 *158:13 1.4
12 *158:9 *158:12 0.606419
13 *158:8 *158:11 0.0407136
14 *158:7 *158:10 0.497132
15 *158:7 *158:9 1.4
16 *158:6 *158:8 0.0107141
17 *158:5 *158:7 0.994265
18 *158:5 *158:6 1.4
19 *158:4 *158:5 0.869982
20 *158:3 *158:4 1.4
21 *158:2 *158:3 4.00276
22 *158:1 *158:2 0.0021428
23 *622:SI *158:1 1.4
*END

*D_NET *159 0.00203849

*CONN
*I *621:SI I *C 19.3155 56.8585 *L 0.00276 *D SDFFRHQX1
*I *950:C1 I *C 17.0085 61.758 *L 0.00176 *D AOI222XL
*I *692:A I *C 13.8435 63.05 *L 0.0017 *D MX2X1
*I *620:Q O *C 8.7375 64.452 *L 0 *D SDFFRHQX1

*CAP
1 *159:1 1.60604e-06
2 *159:2 2.38229e-05
3 *159:3 2.22169e-05
4 *159:4 0.000108868
5 *159:5 0.000108868
6 *159:6 0.000232875
7 *159:7 0.000326026
8 *159:8 9.31502e-05
9 *159:9 1.55525e-05
10 *159:10 0.00018663
11 *159:11 1.55525e-05
12 *159:12 0.000451023
13 *159:13 7.22717e-06
14 *159:14 1.68634e-05
15 *159:15 0.000264393
16 *159:16 9.63623e-06
17 *159:17 2.06108e-05
18 *159:18 5.8085e-05
19 *159:19 2.40906e-06
20 *159:20 3.74742e-06
21 *159:21 6.37062e-05
22 *159:24 5.62113e-06

*RES
1 *159:24 *620:Q 1.4
2 *159:21 *159:24 0.0449993
3 *159:20 *692:A 1.4
4 *159:19 *950:C1 1.4
5 *159:18 *159:21 0.464993
6 *159:17 *159:20 0.0299995
7 *159:16 *159:19 0.0192854
8 *159:15 *159:18 1.4
9 *159:14 *159:17 0.134998
10 *159:13 *159:16 0.0578562
11 *159:12 *159:15 2.11281
12 *159:12 *159:14 1.4
13 *159:11 *159:13 1.4
14 *159:10 *159:12 1.4914
15 *159:9 *159:11 0.124283
16 *159:8 *159:10 1.4
17 *159:7 *159:9 1.4
18 *159:7 *159:8 0.745703
19 *159:6 *159:7 1.86426
20 *159:5 *159:6 1.4
21 *159:4 *159:5 0.869982
22 *159:3 *159:4 1.4
23 *159:2 *159:3 0.177854
24 *159:1 *159:2 0.0128569
25 *621:SI *159:1 1.4
*END

*D_NET *160 0.00336507

*CONN
*I *620:SI I *C 17.1475 65.032 *L 0.00276 *D SDFFRHQX1
*I *949:C1 I *C 14.485 72.239 *L 0.00176 *D AOI222XL
*I *691:A I *C 10.42 80.872 *L 0.0017 *D MX2X1
*I *619:Q O *C 5.2105 83.288 *L 0 *D SDFFRHQX1

*CAP
1 *160:1 5.62113e-06
2 *160:2 5.62113e-06
3 *160:4 0.000330041
4 *160:5 0.000330041
5 *160:6 0.000155525
6 *160:7 0.000155525
7 *160:8 5.59436e-05
8 *160:9 0.000486546
9 *160:10 0.000423642
10 *160:11 6.9595e-06
11 *160:12 0.000215082
12 *160:14 0.000491617
13 *160:15 3.60571e-05
14 *160:16 0.000276535
15 *160:17 4.26369e-05
16 *160:18 0.000163441
17 *160:19 6.57977e-06
18 *160:20 0.000170548
19 *160:22 7.10615e-06

*RES
1 *160:22 *619:Q 1.4
2 *160:20 *160:22 0.0578584
3 *160:19 *691:A 1.4
4 *160:18 *160:20 1.33074
5 *160:17 *160:19 0.0535726
6 *160:16 *160:18 1.4
7 *160:15 *160:17 0.293578
8 *160:14 *160:16 2.2371
9 *160:14 *160:15 1.4
10 *160:12 *160:14 1.73996
11 *160:11 *949:C1 1.4
12 *160:10 *160:12 1.4
13 *160:9 *160:11 0.0557134
14 *160:9 *160:10 3.40498
15 *160:8 *160:9 0.44785
16 *160:7 *160:8 1.4
17 *160:6 *160:7 1.24283
18 *160:5 *160:6 1.4
19 *160:4 *160:5 2.6421
20 *160:3 *160:4 1.4
21 *160:2 *160:3 1.4
22 *160:1 *160:2 0.0449993
23 *620:SI *160:1 1.4
*END

*D_NET *161 0.00162648

*CONN
*I *619:SI I *C 13.6205 83.868 *L 0.00276 *D SDFFRHQX1
*I *948:C1 I *C 13.5985 87.325 *L 0.00176 *D AOI222XL
*I *690:A I *C 10.5465 90.5365 *L 0.0017 *D MX2X1
*I *618:Q O *C 6.449 91.7485 *L 0 *D SDFFRHQX1

*CAP
1 *161:1 7.10615e-06
2 *161:2 0.000188971
3 *161:3 0.000346359
4 *161:4 0.000158441
5 *161:5 6.05339e-06
6 *161:6 0.00015363
7 *161:8 0.000368713
8 *161:9 1.05276e-05
9 *161:10 0.000215082
10 *161:11 1.26332e-05
11 *161:12 7.4483e-05
12 *161:13 2.10553e-06
13 *161:14 7.84308e-05
14 *161:16 3.94786e-06

*RES
1 *161:16 *618:Q 1.4
2 *161:14 *161:16 0.0321435
3 *161:13 *690:A 1.4
4 *161:12 *161:14 0.606441
5 *161:11 *161:13 0.0171432
6 *161:10 *161:12 1.4
7 *161:9 *161:11 0.0857161
8 *161:8 *161:10 1.73996
9 *161:8 *161:9 1.4
10 *161:6 *161:8 1.24283
11 *161:5 *948:C1 1.4
12 *161:4 *161:6 1.4
13 *161:3 *161:5 0.0492868
14 *161:3 *161:4 1.29003
15 *161:2 *161:3 1.48075
16 *161:1 *161:2 0.0578584
17 *619:SI *161:1 1.4
*END

*D_NET *162 0.000910286

*CONN
*I *947:C1 I *C 18.4595 91.0525 *L 0.00176 *D AOI222XL
*I *689:A I *C 16.4855 93.2815 *L 0.0017 *D MX2X1
*I *618:SI I *C 14.859 92.3285 *L 0.00276 *D SDFFRHQX1
*I *617:Q O *C 13.5645 93.4895 *L 0 *D SDFFRHQX1

*CAP
1 *162:1 2.36872e-06
2 *162:2 0.00011712
3 *162:3 0.000114751
4 *162:4 0.000107541
5 *162:5 0.000184356
6 *162:6 2.36872e-06
7 *162:7 0.00015363
8 *162:8 7.63253e-06
9 *162:9 4.76375e-05
10 *162:10 7.68152e-05
11 *162:11 5.26381e-06
12 *162:12 5.15854e-05
13 *162:13 1.34227e-05
14 *162:15 3.94786e-06
15 *162:16 1.76338e-05
16 *162:18 4.21105e-06

*RES
1 *162:18 *617:Q 1.4
2 *162:16 *162:18 0.0342864
3 *162:15 *618:SI 1.4
4 *162:13 *162:16 0.109288
5 *162:12 *162:15 0.0321435
6 *162:11 *689:A 1.4
7 *162:10 *162:13 1.4
8 *162:9 *162:12 0.387865
9 *162:8 *162:11 0.042858
10 *162:7 *162:10 0.621415
11 *162:7 *162:9 1.4
12 *162:6 *162:8 0.0192861
13 *162:5 *162:7 0.621415
14 *162:5 *162:6 1.4
15 *162:4 *162:5 0.869982
16 *162:3 *162:4 1.4
17 *162:2 *162:3 0.934305
18 *162:1 *162:2 0.0192861
19 *947:C1 *162:1 1.4
*END

*D_NET *163 0.00203232

*CONN
*I *946:C1 I *C 35.3245 89.648 *L 0.00176 *D AOI222XL
*I *688:A I *C 34.538 91.876 *L 0.0017 *D MX2X1
*I *616:Q O *C 32.511 91.861 *L 0 *D SDFFRHQX1
*I *617:SI I *C 21.9745 94.0695 *L 0.00276 *D SDFFRHQX1

*CAP
1 *163:1 4.65015e-06
2 *163:2 9.99783e-05
3 *163:3 9.53281e-05
4 *163:4 3.29238e-05
5 *163:5 8.23095e-05
6 *163:6 1.9634e-05
7 *163:7 4.93857e-05
8 *163:8 2.55758e-05
9 *163:9 1.49838e-05
10 *163:10 5.94186e-06
11 *163:11 1.49838e-05
12 *163:13 6.58476e-05
13 *163:14 0.000659004
14 *163:15 3.87513e-06
15 *163:16 0.000593156
16 *163:17 9.81699e-06
17 *163:18 0.000120278
18 *163:19 5.94186e-06
19 *163:20 0.000124489
20 *163:22 4.21105e-06

*RES
1 *163:22 *617:SI 1.4
2 *163:20 *163:22 0.0342864
3 *163:19 *616:Q 1.4
4 *163:18 *163:20 0.979306
5 *163:17 *163:19 0.0492869
6 *163:16 *163:18 1.4
7 *163:15 *163:17 0.0321436
8 *163:14 *163:16 4.5986
9 *163:14 *163:15 1.4
10 *163:13 *163:14 0.497155
11 *163:11 *163:13 1.4
12 *163:10 *688:A 1.4
13 *163:9 *163:11 0.124289
14 *163:8 *163:10 0.0492869
15 *163:7 *163:9 1.4
16 *163:6 *163:8 0.162861
17 *163:5 *163:7 0.372866
18 *163:5 *163:6 1.4
19 *163:4 *163:5 0.248578
20 *163:3 *163:4 1.4
21 *163:2 *163:3 0.790734
22 *163:1 *163:2 0.0385724
23 *946:C1 *163:1 1.4
*END

*D_NET *164 0.00103962

*CONN
*I *945:C1 I *C 43.389 87.5695 *L 0.00176 *D AOI222XL
*I *687:A I *C 42.4315 90.012 *L 0.0017 *D MX2X1
*I *615:Q O *C 40.0515 90.231 *L 0 *D SDFFRHQX1
*I *616:SI I *C 40.921 92.441 *L 0.00276 *D SDFFRHQX1

*CAP
1 *164:1 1.80839e-06
2 *164:2 8.78362e-06
3 *164:3 6.97523e-06
4 *164:4 1.64619e-05
5 *164:5 1.64619e-05
6 *164:6 0.000134854
7 *164:7 0.000134854
8 *164:8 6.58476e-05
9 *164:9 0.000131695
10 *164:10 1.80839e-06
11 *164:11 6.58476e-05
12 *164:12 4.65015e-06
13 *164:13 1.49838e-05
14 *164:14 2.84176e-06
15 *164:15 0.000119871
16 *164:17 0.000104887
17 *164:18 6.58476e-05
18 *164:19 1.64619e-05
19 *164:20 6.58476e-05
20 *164:21 1.64619e-05
21 *164:22 5.42518e-06
22 *164:23 3.87513e-06
23 *164:24 1.1367e-05
24 *164:25 9.81699e-06
25 *164:26 5.94186e-06
26 *164:27 5.94186e-06

*RES
1 *164:27 *616:SI 1.4
2 *164:26 *615:Q 1.4
3 *164:25 *164:27 0.0492869
4 *164:24 *164:26 0.0492869
5 *164:23 *164:25 0.0321436
6 *164:22 *164:24 0.0450011
7 *164:21 *164:23 1.4
8 *164:20 *164:22 1.4
9 *164:19 *164:21 0.124289
10 *164:18 *164:20 0.497155
11 *164:17 *164:19 1.4
12 *164:15 *164:18 1.4
13 *164:15 *164:17 0.870021
14 *164:14 *687:A 1.4
15 *164:13 *164:15 0.124289
16 *164:12 *164:14 0.023572
17 *164:11 *164:13 1.4
18 *164:10 *164:12 0.0150004
19 *164:9 *164:11 0.497155
20 *164:9 *164:10 1.4
21 *164:8 *164:9 0.497155
22 *164:7 *164:8 1.4
23 *164:6 *164:7 1.1186
24 *164:5 *164:6 1.4
25 *164:4 *164:5 0.124289
26 *164:3 *164:4 1.4
27 *164:2 *164:3 0.0578586
28 *164:1 *164:2 0.0150004
29 *945:C1 *164:1 1.4
*END

*D_NET *165 0.000865784

*CONN
*I *718:A I *C 51.917 90.109 *L 0.0017 *D MX2X1
*I *944:C1 I *C 51.909 87.518 *L 0.00176 *D AOI222XL
*I *614:Q O *C 50.1905 90.45 *L 0 *D SDFFRHQX1
*I *615:SI I *C 48.4615 90.811 *L 0.00276 *D SDFFRHQX1

*CAP
1 *165:1 7.23357e-06
2 *165:2 1.0592e-05
3 *165:3 3.35844e-06
4 *165:4 1.64619e-05
5 *165:5 1.64619e-05
6 *165:6 0.000175414
7 *165:7 4.49515e-05
8 *165:8 0.000137955
9 *165:9 8.23094e-05
10 *165:10 7.49191e-06
11 *165:11 0.000181081
12 *165:13 2.40258e-05
13 *165:14 9.87713e-05
14 *165:15 3.04843e-05
15 *165:16 5.42518e-06
16 *165:17 6.45855e-06
17 *165:18 1.1367e-05
18 *165:20 5.94186e-06

*RES
1 *165:20 *615:SI 1.4
2 *165:18 *165:20 0.0492869
3 *165:17 *614:Q 1.4
4 *165:16 *165:18 0.0450011
5 *165:15 *165:17 0.0535727
6 *165:14 *165:16 1.4
7 *165:13 *165:15 0.199291
8 *165:11 *165:14 0.745732
9 *165:11 *165:13 1.4
10 *165:10 *944:C1 1.4
11 *165:9 *165:11 0.621444
12 *165:8 *165:10 0.0621444
13 *165:7 *165:9 1.4
14 *165:6 *165:8 1.08217
15 *165:6 *165:7 0.372866
16 *165:5 *165:6 1.4
17 *165:4 *165:5 0.124289
18 *165:3 *165:4 1.4
19 *165:2 *165:3 0.0278578
20 *165:1 *165:2 0.0600015
21 *718:A *165:1 1.4
*END

*D_NET *166 0.00114392

*CONN
*I *943:C1 I *C 64.778 87.152 *L 0.00176 *D AOI222XL
*I *717:A I *C 63.381 90.3455 *L 0.0017 *D MX2X1
*I *613:Q O *C 61.04 90.9865 *L 0 *D SDFFRHQX1
*I *614:SI I *C 58.6005 91.03 *L 0.00276 *D SDFFRHQX1

*CAP
1 *166:1 1.81115e-06
2 *166:2 0.000181633
3 *166:3 0.000179822
4 *166:4 8.18459e-05
5 *166:5 0.000130953
6 *166:6 1.44892e-05
7 *166:7 4.91075e-05
8 *166:8 1.52654e-05
9 *166:9 1.50067e-05
10 *166:10 7.76209e-07
11 *166:11 1.50067e-05
12 *166:13 8.18459e-05
13 *166:14 0.000212799
14 *166:15 3.62231e-06
15 *166:16 0.000130953
16 *166:17 3.88105e-06
17 *166:18 5.95094e-06
18 *166:19 2.58736e-07
19 *166:20 1.24193e-05
20 *166:22 6.46841e-06

*RES
1 *166:22 *614:SI 1.4
2 *166:20 *166:22 0.0535705
3 *166:19 *613:Q 1.4
4 *166:18 *166:20 0.0492849
5 *166:17 *166:19 0.00214282
6 *166:16 *166:18 1.4
7 *166:15 *166:17 0.0299995
8 *166:14 *166:16 0.994264
9 *166:14 *166:15 1.4
10 *166:13 *166:14 0.621415
11 *166:11 *166:13 1.4
12 *166:10 *717:A 1.4
13 *166:9 *166:11 0.124284
14 *166:8 *166:10 0.00642846
15 *166:7 *166:9 1.4
16 *166:6 *166:8 0.119998
17 *166:5 *166:7 0.372849
18 *166:5 *166:6 1.4
19 *166:4 *166:5 0.621415
20 *166:3 *166:4 1.4
21 *166:2 *166:3 1.48926
22 *166:1 *166:2 0.0149997
23 *943:C1 *166:1 1.4
*END

*D_NET *167 0.000850031

*CONN
*I *957:C1 I *C 70.9785 88.183 *L 0.00176 *D AOI222XL
*I *716:A I *C 70.11 91.6815 *L 0.0017 *D MX2X1
*I *613:SI I *C 69.45 91.5665 *L 0.00276 *D SDFFRHQX1
*I *612:Q O *C 67.866 92.6155 *L 0 *D SDFFRHQX1

*CAP
1 *167:1 3.88105e-06
2 *167:2 0.000190171
3 *167:3 0.00018629
4 *167:4 4.91075e-05
5 *167:5 8.18459e-05
6 *167:6 5.43346e-06
7 *167:7 0.000114584
8 *167:8 9.31451e-06
9 *167:9 1.13844e-05
10 *167:10 8.18459e-05
11 *167:11 3.88105e-06
12 *167:12 1.16431e-05
13 *167:13 4.29502e-05
14 *167:15 2.58736e-07
15 *167:16 5.01949e-05
16 *167:18 7.24462e-06

*RES
1 *167:18 *612:Q 1.4
2 *167:16 *167:18 0.059999
3 *167:15 *613:SI 1.4
4 *167:13 *167:16 0.355708
5 *167:12 *167:15 0.00214282
6 *167:11 *716:A 1.4
7 *167:10 *167:13 1.4
8 *167:9 *167:12 0.0942841
9 *167:8 *167:11 0.0321423
10 *167:7 *167:10 0.621415
11 *167:7 *167:9 1.4
12 *167:6 *167:8 0.0449992
13 *167:5 *167:7 0.248566
14 *167:5 *167:6 1.4
15 *167:4 *167:5 0.372849
16 *167:3 *167:4 1.4
17 *167:2 *167:3 1.54283
18 *167:1 *167:2 0.0321423
19 *957:C1 *167:1 1.4
*END

*D_NET *168 0.00167475

*CONN
*I *910:C1 I *C 81.4975 90.4985 *L 0.00176 *D AOI222XL
*I *612:SI I *C 76.276 93.1955 *L 0.00276 *D SDFFRHQX1
*I *611:Q O *C 86.443 93.4775 *L 0 *D SDFFRHQX1
*I *715:A I *C 87.428 93.1265 *L 0.0017 *D MX2X1

*CAP
1 *168:1 7.17967e-06
2 *168:2 1.38275e-05
3 *168:3 6.64784e-06
4 *168:4 1.61012e-05
5 *168:5 1.61012e-05
6 *168:6 0.000138807
7 *168:7 0.00015423
8 *168:8 1.5423e-05
9 *168:9 0.000307665
10 *168:10 0.000257619
11 *168:11 0.000307665
12 *168:12 0.000305923
13 *168:13 2.06989e-06
14 *168:14 4.83036e-05
15 *168:15 2.39322e-06
16 *168:16 9.31451e-06
17 *168:17 2.12731e-05
18 *168:18 8.77515e-06
19 *168:19 7.24462e-06
20 *168:20 2.1539e-05
21 *168:21 6.38193e-06
22 *168:23 2.65914e-07

*RES
1 *168:23 *715:A 1.4
2 *168:21 *611:Q 1.4
3 *168:20 *168:23 0.00214291
4 *168:19 *612:SI 1.4
5 *168:18 *168:21 0.0514298
6 *168:17 *168:20 0.171433
7 *168:16 *168:19 0.059999
8 *168:15 *168:18 0.0192862
9 *168:14 *168:17 1.4
10 *168:13 *168:16 0.0171426
11 *168:12 *168:15 1.4
12 *168:12 *168:14 0.372849
13 *168:11 *168:13 1.4
14 *168:10 *168:12 1.98853
15 *168:9 *168:11 2.36138
16 *168:8 *168:10 1.4
17 *168:7 *168:9 1.4
18 *168:7 *168:8 0.124289
19 *168:6 *168:7 1.1186
20 *168:5 *168:6 1.4
21 *168:4 *168:5 0.124283
22 *168:3 *168:4 1.4
23 *168:2 *168:3 0.0535727
24 *168:1 *168:2 0.0578586
25 *910:C1 *168:1 1.4
*END

*D_NET *169 0.000893924

*CONN
*I *714:A I *C 97.149 92.4195 *L 0.0017 *D MX2X1
*I *924:C1 I *C 96.3035 90.7865 *L 0.00176 *D AOI222XL
*I *611:SI I *C 94.853 94.0575 *L 0.00276 *D SDFFRHQX1
*I *610:Q O *C 94.989 91.885 *L 0 *D SDFFRHQX1

*CAP
1 *169:1 7.7115e-06
2 *169:2 2.60595e-05
3 *169:3 1.8348e-05
4 *169:4 3.22024e-05
5 *169:5 9.66072e-05
6 *169:6 6.86057e-05
7 *169:7 6.44048e-05
8 *169:8 7.49877e-05
9 *169:9 0.000107961
10 *169:10 6.38193e-06
11 *169:11 0.000107961
12 *169:13 1.61012e-05
13 *169:14 1.61012e-05
14 *169:15 2.39322e-06
15 *169:16 0.000124448
16 *169:17 6.38193e-06
17 *169:18 0.00011647
18 *169:20 7.97741e-07

*RES
1 *169:20 *610:Q 1.4
2 *169:18 *169:20 0.00642873
3 *169:17 *611:SI 1.4
4 *169:16 *169:18 0.932166
5 *169:16 *169:17 0.0514298
6 *169:15 *169:16 0.0192862
7 *169:14 *169:15 1.4
8 *169:13 *169:14 0.124283
9 *169:11 *169:13 1.4
10 *169:10 *924:C1 1.4
11 *169:9 *169:11 0.870021
12 *169:8 *169:10 0.0514298
13 *169:7 *169:9 1.4
14 *169:6 *169:8 0.552871
15 *169:5 *169:7 0.497132
16 *169:5 *169:6 1.4
17 *169:4 *169:5 0.248566
18 *169:3 *169:4 1.4
19 *169:2 *169:3 0.147861
20 *169:1 *169:2 0.0621444
21 *714:A *169:1 1.4
*END

*D_NET *170 0.00186901

*CONN
*I *610:SI I *C 103.399 92.465 *L 0.00276 *D SDFFRHQX1
*I *923:C1 I *C 99.223 85.94 *L 0.00176 *D AOI222XL
*I *713:A I *C 99.112 86.521 *L 0.0017 *D MX2X1
*I *609:Q O *C 95.9615 84.952 *L 0 *D SDFFRHQX1

*CAP
1 *170:1 7.97741e-07
2 *170:2 1.09025e-05
3 *170:3 1.01047e-05
4 *170:4 9.66072e-05
5 *170:5 9.66072e-05
6 *170:6 0.00030846
7 *170:7 0.00030846
8 *170:8 0.00012881
9 *170:9 0.000144911
10 *170:10 4.86622e-05
11 *170:11 0.000177113
12 *170:12 5.39805e-05
13 *170:13 1.78162e-05
14 *170:14 0.000161012
15 *170:15 5.31827e-06
16 *170:16 2.18049e-05
17 *170:17 0.000107961
18 *170:19 3.9887e-06
19 *170:20 0.000107961
20 *170:22 1.61012e-05
21 *170:23 1.61012e-05
22 *170:24 6.64784e-06
23 *170:25 1.27639e-05
24 *170:26 6.11601e-06

*RES
1 *170:26 *609:Q 1.4
2 *170:25 *170:26 0.0492869
3 *170:24 *170:25 0.0535727
4 *170:23 *170:24 1.4
5 *170:22 *170:23 0.124283
6 *170:20 *170:22 1.4
7 *170:19 *713:A 1.4
8 *170:17 *170:20 0.870021
9 *170:16 *170:19 0.0321436
10 *170:15 *923:C1 1.4
11 *170:14 *170:17 1.4
12 *170:13 *170:16 0.143575
13 *170:12 *170:15 0.0428582
14 *170:11 *170:14 1.24283
15 *170:11 *170:13 1.4
16 *170:10 *170:12 0.392152
17 *170:9 *170:11 0.124283
18 *170:9 *170:10 1.4
19 *170:8 *170:9 0.994264
20 *170:7 *170:8 1.4
21 *170:6 *170:7 2.48577
22 *170:5 *170:6 1.4
23 *170:4 *170:5 0.745698
24 *170:3 *170:4 1.4
25 *170:2 *170:3 0.0814306
26 *170:1 *170:2 0.00642873
27 *610:SI *170:1 1.4
*END

*D_NET *171 0.00360924

*CONN
*I *609:SI I *C 104.371 85.532 *L 0.00276 *D SDFFRHQX1
*I *922:C1 I *C 96.999 67.2575 *L 0.00176 *D AOI222XL
*I *712:A I *C 96 66.7755 *L 0.0017 *D MX2X1
*I *608:Q O *C 91.8815 64.211 *L 0 *D SDFFRHQX1

*CAP
1 *171:1 6.11601e-06
2 *171:2 0.000977466
3 *171:3 0.00097135
4 *171:4 0.000369518
5 *171:5 0.00041386
6 *171:6 6.57007e-06
7 *171:7 0.000266053
8 *171:8 6.83287e-06
9 *171:9 1.89218e-05
10 *171:10 0.000221711
11 *171:11 2.62803e-07
12 *171:12 2.60175e-05
13 *171:13 0.00015374
14 *171:15 7.09568e-06
15 *171:16 0.000158733
16 *171:18 4.99325e-06

*RES
1 *171:18 *608:Q 1.4
2 *171:16 *171:18 0.0407148
3 *171:15 *712:A 1.4
4 *171:13 *171:16 1.25359
5 *171:12 *171:15 0.0578579
6 *171:11 *922:C1 1.4
7 *171:10 *171:13 1.4
8 *171:9 *171:12 0.154288
9 *171:8 *171:11 0.00214289
10 *171:7 *171:10 1.86425
11 *171:7 *171:9 1.4
12 *171:6 *171:8 0.0535721
13 *171:5 *171:7 0.37285
14 *171:5 *171:6 1.4
15 *171:4 *171:5 3.10708
16 *171:3 *171:4 1.4
17 *171:2 *171:3 7.88371
18 *171:1 *171:2 0.0492869
19 *609:SI *171:1 1.4
*END

*D_NET *172 0.00200925

*CONN
*I *608:SI I *C 100.291 64.791 *L 0.00276 *D SDFFRHQX1
*I *921:C1 I *C 95.1535 59.642 *L 0.00176 *D AOI222XL
*I *711:A I *C 93.787 59.131 *L 0.0017 *D MX2X1
*I *607:Q O *C 89.8865 56.715 *L 0 *D SDFFRHQX1

*CAP
1 *172:1 4.99325e-06
2 *172:2 0.000278045
3 *172:3 0.000273052
4 *172:4 0.000251272
5 *172:5 0.000325176
6 *172:6 2.36523e-06
7 *172:7 8.86843e-05
8 *172:8 8.14689e-06
9 *172:9 2.44407e-05
10 *172:10 1.47807e-05
11 *172:11 5.78166e-06
12 *172:12 2.60175e-05
13 *172:13 0.000152426
14 *172:15 1.57682e-06
15 *172:16 0.000152426
16 *172:18 0.000192149
17 *172:19 0.000192149
18 *172:20 1.05121e-06
19 *172:21 7.88409e-06
20 *172:22 6.83287e-06

*RES
1 *172:22 *607:Q 1.4
2 *172:21 *172:22 0.055715
3 *172:20 *172:21 0.00857154
4 *172:19 *172:20 1.4
5 *172:18 *172:19 1.61568
6 *172:16 *172:18 1.4
7 *172:15 *711:A 1.4
8 *172:13 *172:16 1.24287
9 *172:12 *172:15 0.0128573
10 *172:11 *921:C1 1.4
11 *172:10 *172:13 1.4
12 *172:9 *172:12 0.199288
13 *172:8 *172:11 0.0471435
14 *172:7 *172:10 0.124283
15 *172:7 *172:9 1.4
16 *172:6 *172:8 0.019286
17 *172:5 *172:7 0.621416
18 *172:5 *172:6 1.4
19 *172:4 *172:5 2.11281
20 *172:3 *172:4 1.4
21 *172:2 *172:3 2.22646
22 *172:1 *172:2 0.0407148
23 *608:SI *172:1 1.4
*END

*D_NET *173 0.00258236

*CONN
*I *607:SI I *C 98.2965 57.295 *L 0.00276 *D SDFFRHQX1
*I *920:C1 I *C 96.2425 46.753 *L 0.00176 *D AOI222XL
*I *710:A I *C 94.0685 45.6015 *L 0.0017 *D MX2X1
*I *606:Q O *C 89.7075 42.6475 *L 0 *D SDFFRHQX1

*CAP
1 *173:1 6.83287e-06
2 *173:2 7.88409e-06
3 *173:3 1.05121e-06
4 *173:4 2.95614e-05
5 *173:5 2.95614e-05
6 *173:6 0.00054543
7 *173:7 0.00054543
8 *173:8 0.000138452
9 *173:9 0.000246136
10 *173:10 4.1556e-06
11 *173:11 0.000107685
12 *173:12 9.86955e-06
13 *173:13 6.41521e-05
14 *173:14 5.71395e-06
15 *173:15 0.000212715
16 *173:17 1.81807e-06
17 *173:18 0.000146745
18 *173:20 0.000230753
19 *173:21 0.000230753
20 *173:22 6.49312e-06
21 *173:23 8.83065e-06
22 *173:24 2.33752e-06

*RES
1 *173:24 *606:Q 1.4
2 *173:23 *173:24 0.0192852
3 *173:22 *173:23 0.0535701
4 *173:21 *173:22 1.4
5 *173:20 *173:21 1.86432
6 *173:18 *173:20 1.4
7 *173:17 *710:A 1.4
8 *173:15 *173:18 1.21068
9 *173:15 *173:17 0.0149996
10 *173:14 *920:C1 1.4
11 *173:13 *173:15 0.529273
12 *173:12 *173:14 0.0471417
13 *173:11 *173:13 1.4
14 *173:10 *173:12 0.0342849
15 *173:9 *173:11 0.870014
16 *173:9 *173:10 1.4
17 *173:8 *173:9 1.11859
18 *173:7 *173:8 1.4
19 *173:6 *173:7 4.47426
20 *173:5 *173:6 1.4
21 *173:4 *173:5 0.248566
22 *173:3 *173:4 1.4
23 *173:2 *173:3 0.00857154
24 *173:1 *173:2 0.055715
25 *607:SI *173:1 1.4
*END

*D_NET *174 0.00252559

*CONN
*I *606:SI I *C 98.1175 43.2275 *L 0.00276 *D SDFFRHQX1
*I *919:C1 I *C 96.3315 35.0025 *L 0.00176 *D AOI222XL
*I *709:A I *C 91.756 35.807 *L 0.0017 *D MX2X1
*I *605:Q O *C 84.7325 34.565 *L 0 *D SDFFRHQX1

*CAP
1 *174:1 2.33752e-06
2 *174:2 8.83065e-06
3 *174:3 6.49312e-06
4 *174:4 1.53835e-05
5 *174:5 1.53835e-05
6 *174:6 0.000436857
7 *174:7 0.000436857
8 *174:8 0.000107685
9 *174:9 0.000353821
10 *174:10 3.1167e-06
11 *174:11 0.00061534
12 *174:12 8.05147e-06
13 *174:13 4.46727e-05
14 *174:14 0.000369204
15 *174:15 4.93477e-06
16 *174:16 4.6231e-05
17 *174:17 1.97391e-05
18 *174:19 1.55835e-06
19 *174:20 2.44141e-05
20 *174:22 4.67505e-06

*RES
1 *174:22 *605:Q 1.4
2 *174:20 *174:22 0.0385705
3 *174:19 *709:A 1.4
4 *174:17 *174:20 0.162853
5 *174:16 *174:19 0.0128568
6 *174:15 *919:C1 1.4
7 *174:14 *174:17 1.4
8 *174:13 *174:16 0.368562
9 *174:12 *174:15 0.0407133
10 *174:11 *174:14 2.98291
11 *174:11 *174:13 1.4
12 *174:10 *174:12 0.0257137
13 *174:9 *174:11 1.9886
14 *174:9 *174:10 1.4
15 *174:8 *174:9 0.870014
16 *174:7 *174:8 1.4
17 *174:6 *174:7 3.6042
18 *174:5 *174:6 1.4
19 *174:4 *174:5 0.124288
20 *174:3 *174:4 1.4
21 *174:2 *174:3 0.0535701
22 *174:1 *174:2 0.0192852
23 *606:SI *174:1 1.4
*END

*D_NET *175 0.00290107

*CONN
*I *605:SI I *C 93.1425 35.145 *L 0.00276 *D SDFFRHQX1
*I *918:C1 I *C 81.8265 33.0165 *L 0.00176 *D AOI222XL
*I *708:A I *C 74.531 34.021 *L 0.0017 *D MX2X1
*I *604:Q O *C 67.814 34.016 *L 0 *D SDFFRHQX1

*CAP
1 *175:1 4.67505e-06
2 *175:2 9.3501e-06
3 *175:3 4.67505e-06
4 *175:4 0.000599956
5 *175:5 0.000599956
6 *175:6 6.02562e-05
7 *175:7 0.000115318
8 *175:8 0.000381039
9 *175:9 6.02562e-05
10 *175:10 0.000702604
11 *175:11 5.1945e-06
12 *175:12 2.76735e-06
13 *175:13 0.000321566
14 *175:15 1.00631e-05
15 *175:16 3.01893e-06
16 *175:17 7.29575e-06
17 *175:18 8.05048e-06
18 *175:20 5.03155e-06

*RES
1 *175:20 *604:Q 1.4
2 *175:18 *175:20 0.0428561
3 *175:17 *708:A 1.4
4 *175:16 *175:18 0.0257137
5 *175:15 *175:17 0.0621413
6 *175:13 *175:16 1.4
7 *175:12 *175:15 0.0235709
8 *175:11 *918:C1 1.4
9 *175:10 *175:13 2.8585
10 *175:10 *175:12 1.4
11 *175:9 *175:11 0.0428561
12 *175:8 *175:10 3.23141
13 *175:7 *175:9 0.454275
14 *175:7 *175:8 1.4
15 *175:6 *175:7 0.497131
16 *175:5 *175:6 1.4
17 *175:4 *175:5 4.84722
18 *175:3 *175:4 1.4
19 *175:2 *175:3 0.0385705
20 *175:1 *175:2 0.0385705
21 *605:SI *175:1 1.4
*END

*D_NET *176 0.000208529

*CONN
*I *794:D I *C 70.606 41.7455 *L 0.00276 *D SDFFRHQX1
*I *973:Y O *C 68.9855 41.4595 *L 0 *D OAI21X1

*CAP
1 *176:1 5.03155e-07
2 *176:2 7.04417e-06
3 *176:3 6.54102e-06
4 *176:4 8.38867e-05
5 *176:5 8.38867e-05
6 *176:6 7.79891e-06
7 *176:7 1.33336e-05
8 *176:8 5.53471e-06

*RES
1 *176:8 *973:Y 1.4
2 *176:7 *176:8 0.0471417
3 *176:6 *176:7 0.0664269
4 *176:5 *176:6 1.4
5 *176:4 *176:5 0.745696
6 *176:3 *176:4 1.4
7 *176:2 *176:3 0.0557129
8 *176:1 *176:2 0.00428561
9 *794:D *176:1 1.4
*END

*D_NET *177 0.000827241

*CONN
*I *793:D I *C 70.956 57.1255 *L 0.00276 *D SDFFRHQX1
*I *975:S O *C 71.5525 49.315 *L 0 *D ADDFX1

*CAP
1 *177:1 2.37567e-06
2 *177:2 9.02756e-06
3 *177:3 6.65189e-06
4 *177:4 1.45776e-05
5 *177:5 1.45776e-05
6 *177:6 0.000365971
7 *177:7 0.000365971
8 *177:8 1.39811e-05
9 *177:9 1.39811e-05
10 *177:10 6.54102e-06
11 *177:11 1.00631e-05
12 *177:12 3.52209e-06

*RES
1 *177:12 *975:S 1.4
2 *177:11 *177:12 0.0299993
3 *177:10 *177:11 0.0557129
4 *177:9 *177:10 1.4
5 *177:8 *177:9 0.124283
6 *177:7 *177:8 1.4
7 *177:6 *177:7 3.23139
8 *177:5 *177:6 1.4
9 *177:4 *177:5 0.124289
10 *177:3 *177:4 1.4
11 *177:2 *177:3 0.0599998
12 *177:1 *177:2 0.0214285
13 *793:D *177:1 1.4
*END

*D_NET *178 0.000515603

*CONN
*I *792:D I *C 67.3685 60.349 *L 0.00276 *D SDFFRHQX1
*I *976:S O *C 69.1965 56.852 *L 0 *D ADDFX1

*CAP
1 *178:1 2.61324e-06
2 *178:2 0.000162496
3 *178:3 0.000159883
4 *178:4 8.74657e-05
5 *178:5 8.74657e-05
6 *178:6 6.41432e-06
7 *178:7 7.83972e-06
8 *178:8 1.4254e-06

*RES
1 *178:8 *976:S 1.4
2 *178:7 *178:8 0.0128571
3 *178:6 *178:7 0.0578569
4 *178:5 *178:6 1.4
5 *178:4 *178:5 0.745732
6 *178:3 *178:4 1.4
7 *178:2 *178:3 1.44214
8 *178:1 *178:2 0.0235713
9 *792:D *178:1 1.4
*END

*D_NET *179 0.000687774

*CONN
*I *791:D I *C 48.3395 60.319 *L 0.00276 *D SDFFRHQX1
*I *977:S O *C 53.2795 58.5715 *L 0 *D ADDFX1

*CAP
1 *179:1 2.65136e-06
2 *179:2 9.6413e-06
3 *179:3 6.98994e-06
4 *179:4 2.81247e-05
5 *179:5 2.81247e-05
6 *179:6 8.38793e-05
7 *179:7 8.38793e-05
8 *179:8 0.000212739
9 *179:9 0.000212739
10 *179:10 6.41432e-06
11 *179:11 9.50269e-06
12 *179:12 3.08838e-06

*RES
1 *179:12 *977:S 1.4
2 *179:11 *179:12 0.027857
3 *179:10 *179:11 0.0578569
4 *179:9 *179:10 1.4
5 *179:8 *179:9 1.86426
6 *179:7 *179:8 1.4
7 *179:6 *179:7 0.745696
8 *179:5 *179:6 1.4
9 *179:4 *179:5 0.248565
10 *179:3 *179:4 1.4
11 *179:2 *179:3 0.0621413
12 *179:1 *179:2 0.0235709
13 *791:D *179:1 1.4
*END

*D_NET *180 0.000349218

*CONN
*I *790:D I *C 45.6255 55.5335 *L 0.00276 *D SDFFRHQX1
*I *978:S O *C 48.5985 56.1655 *L 0 *D ADDFX1

*CAP
1 *180:1 2.41032e-06
2 *180:2 1.63902e-05
3 *180:3 1.39799e-05
4 *180:4 0.000140624
5 *180:5 0.000140624
6 *180:6 1.63902e-05
7 *180:7 1.75954e-05
8 *180:8 1.20516e-06

*RES
1 *180:8 *978:S 1.4
2 *180:7 *180:8 0.010714
3 *180:6 *180:7 0.145711
4 *180:5 *180:6 1.4
5 *180:4 *180:5 1.24283
6 *180:3 *180:4 1.4
7 *180:2 *180:3 0.124283
8 *180:1 *180:2 0.021428
9 *790:D *180:1 1.4
*END

*D_NET *181 0.00038338

*CONN
*I *789:D I *C 46.791 40.4965 *L 0.00276 *D SDFFRHQX1
*I *979:S O *C 48.038 43.122 *L 0 *D ADDFX1

*CAP
1 *181:1 2.26268e-06
2 *181:2 0.000131487
3 *181:3 0.000129224
4 *181:4 5.51748e-05
5 *181:5 5.51748e-05
6 *181:6 2.7655e-06
7 *181:7 5.02819e-06
8 *181:8 2.26268e-06

*RES
1 *181:8 *979:S 1.4
2 *181:7 *181:8 0.0192862
3 *181:6 *181:7 0.023572
4 *181:5 *181:6 1.4
5 *181:4 *181:5 0.497131
6 *181:3 *181:4 1.4
7 *181:2 *181:3 1.10146
8 *181:1 *181:2 0.0192862
9 *789:D *181:1 1.4
*END

*D_NET *182 0.000255432

*CONN
*I *788:D I *C 48.751 33.536 *L 0.00276 *D SDFFRHQX1
*I *980:S O *C 48.8705 35.957 *L 0 *D ADDFX1

*CAP
1 *182:1 5.78241e-06
2 *182:2 0.000127465
3 *182:3 0.000121933
4 *182:4 2.51409e-07

*RES
1 *182:4 *980:S 1.4
2 *182:3 *182:4 0.00214291
3 *182:2 *182:3 1.03717
4 *182:1 *182:2 0.0492869
5 *788:D *182:1 1.4
*END

*D_NET *183 0.00092447

*CONN
*I *787:D I *C 49.3285 18.1015 *L 0.00276 *D SDFFRHQX1
*I *981:S O *C 49.0915 25.1345 *L 0 *D ADDFX1

*CAP
1 *183:1 6.06925e-06
2 *183:2 7.38865e-06
3 *183:3 1.3194e-06
4 *183:4 4.88735e-05
5 *183:5 4.88735e-05
6 *183:6 0.000367321
7 *183:7 0.000367321
8 *183:8 3.25823e-05
9 *183:9 3.25823e-05
10 *183:10 2.6388e-06
11 *183:11 6.06925e-06
12 *183:12 3.43044e-06

*RES
1 *183:12 *981:S 1.4
2 *183:11 *183:12 0.0278566
3 *183:10 *183:11 0.0214282
4 *183:9 *183:10 1.4
5 *183:8 *183:9 0.248565
6 *183:7 *183:8 1.4
7 *183:6 *183:7 2.9828
8 *183:5 *183:6 1.4
9 *183:4 *183:5 0.372848
10 *183:3 *183:4 1.4
11 *183:2 *183:3 0.0107141
12 *183:1 *183:2 0.0492848
13 *787:D *183:1 1.4
*END

*D_NET *184 0.00102508

*CONN
*I *786:D I *C 44.3395 12.436 *L 0.00276 *D SDFFRHQX1
*I *982:S O *C 46.489 17.4365 *L 0 *D ADDFX1

*CAP
1 *184:1 6.06925e-06
2 *184:2 1.18746e-05
3 *184:3 5.80536e-06
4 *184:4 4.88735e-05
5 *184:5 4.88735e-05
6 *184:6 0.000260186
7 *184:7 0.000260186
8 *184:8 0.000179203
9 *184:9 0.000179203
10 *184:10 9.49969e-06
11 *184:11 1.24024e-05
12 *184:12 2.90268e-06

*RES
1 *184:12 *982:S 1.4
2 *184:11 *184:12 0.023571
3 *184:10 *184:11 0.0771415
4 *184:9 *184:10 1.4
5 *184:8 *184:9 1.36711
6 *184:7 *184:8 1.4
7 *184:6 *184:7 2.11282
8 *184:5 *184:6 1.4
9 *184:4 *184:5 0.372848
10 *184:3 *184:4 1.4
11 *184:2 *184:3 0.047142
12 *184:1 *184:2 0.0492848
13 *786:D *184:1 1.4
*END

*D_NET *185 0.00190419

*CONN
*I *785:D I *C 24.9695 11.601 *L 0.00276 *D SDFFRHQX1
*I *983:S O *C 37.7205 15.01 *L 0 *D ADDFX1

*CAP
1 *185:1 5.85079e-06
2 *185:2 2.7982e-05
3 *185:3 2.21312e-05
4 *185:4 0.000714594
5 *185:5 0.000714594
6 *185:6 0.000202924
7 *185:7 0.000209521
8 *185:8 6.59701e-06

*RES
1 *185:8 *983:S 1.4
2 *185:7 *185:8 0.0535705
3 *185:6 *185:7 1.64783
4 *185:5 *185:6 1.4
5 *185:4 *185:5 5.46846
6 *185:3 *185:4 1.4
7 *185:2 *185:3 0.186426
8 *185:1 *185:2 0.049285
9 *785:D *185:1 1.4
*END

*D_NET *186 0.00105807

*CONN
*I *784:D I *C 18.874 14.7355 *L 0.00276 *D SDFFRHQX1
*I *984:S O *C 26.567 16.706 *L 0 *D ADDFX1

*CAP
1 *186:1 6.10517e-06
2 *186:2 1.0684e-05
3 *186:3 4.57888e-06
4 *186:4 0.00040805
5 *186:5 0.00040805
6 *186:6 0.000108719
7 *186:7 0.000110302
8 *186:8 1.58328e-06

*RES
1 *186:8 *984:S 1.4
2 *186:7 *186:8 0.0128569
3 *186:6 *186:7 0.882841
4 *186:5 *186:6 1.4
5 *186:4 *186:5 3.2315
6 *186:3 *186:4 1.4
7 *186:2 *186:3 0.0385709
8 *186:1 *186:2 0.0514278
9 *784:D *186:1 1.4
*END

*D_NET *187 0.000694095

*CONN
*I *783:D I *C 18.5775 25.8325 *L 0.00276 *D SDFFRHQX1
*I *985:S O *C 22.929 23.881 *L 0 *D ADDFX1

*CAP
1 *187:1 6.35955e-06
2 *187:2 4.45168e-05
3 *187:3 3.81573e-05
4 *187:4 0.000234865
5 *187:5 0.000234865
6 *187:6 6.1306e-05
7 *187:7 6.76656e-05
8 *187:8 6.35955e-06

*RES
1 *187:8 *985:S 1.4
2 *187:7 *187:8 0.0535707
3 *187:6 *187:7 0.516421
4 *187:5 *187:6 1.4
5 *187:4 *187:5 1.86433
6 *187:3 *187:4 1.4
7 *187:2 *187:3 0.321424
8 *187:1 *187:2 0.0535707
9 *783:D *187:1 1.4
*END

*D_NET *188 0.000574635

*CONN
*I *782:D I *C 19.925 36.5 *L 0.00276 *D SDFFRHQX1
*I *986:S O *C 22.795 33.91 *L 0 *D ADDFX1

*CAP
1 *188:1 3.11681e-06
2 *188:2 8.57122e-06
3 *188:3 5.45441e-06
4 *188:4 0.0001481
5 *188:5 0.0001481
6 *188:6 0.000129088
7 *188:7 0.000130646
8 *188:8 1.5584e-06

*RES
1 *188:8 *986:S 1.4
2 *188:7 *188:8 0.0128568
3 *188:6 *188:7 1.06497
4 *188:5 *188:6 1.4
5 *188:4 *188:5 1.24283
6 *188:3 *188:4 1.4
7 *188:2 *188:3 0.0449989
8 *188:1 *188:2 0.0257137
9 *782:D *188:1 1.4
*END

*D_NET *189 0.000575674

*CONN
*I *781:D I *C 20.52 43.877 *L 0.00276 *D SDFFRHQX1
*I *987:S O *C 23.405 41.322 *L 0 *D ADDFX1

*CAP
1 *189:1 3.89601e-06
2 *189:2 0.00013636
3 *189:3 0.000132464
4 *189:4 0.0001481
5 *189:5 0.0001481
6 *189:6 2.59734e-07
7 *189:7 3.37654e-06
8 *189:8 3.11681e-06

*RES
1 *189:8 *987:S 1.4
2 *189:7 *189:8 0.0257137
3 *189:6 *189:7 0.0021428
4 *189:5 *189:6 1.4
5 *189:4 *189:5 1.24283
6 *189:3 *189:4 1.4
7 *189:2 *189:3 1.09283
8 *189:1 *189:2 0.0321421
9 *781:D *189:1 1.4
*END

*D_NET *190 0.00079945

*CONN
*I *780:D I *C 20.4325 56.904 *L 0.00276 *D SDFFRHQX1
*I *988:S O *C 23.7215 53.4685 *L 0 *D ADDFX1

*CAP
1 *190:1 5.35346e-07
2 *190:2 4.81811e-06
3 *190:3 4.28277e-06
4 *190:4 0.00018663
5 *190:5 0.00018663
6 *190:6 0.0001863
7 *190:7 0.0001863
8 *190:8 1.55525e-05
9 *190:9 1.55525e-05
10 *190:10 1.87371e-06
11 *190:11 6.42415e-06
12 *190:12 4.55044e-06

*RES
1 *190:12 *988:S 1.4
2 *190:11 *190:12 0.036428
3 *190:10 *190:11 0.0149998
4 *190:9 *190:10 1.4
5 *190:8 *190:9 0.124283
6 *190:7 *190:8 1.4
7 *190:6 *190:7 1.49141
8 *190:5 *190:6 1.4
9 *190:4 *190:5 1.4914
10 *190:3 *190:4 1.4
11 *190:2 *190:3 0.0342852
12 *190:1 *190:2 0.00428565
13 *780:D *190:1 1.4
*END

*D_NET *191 0.000940411

*CONN
*I *779:D I *C 18.8785 64.8875 *L 0.00276 *D SDFFRHQX1
*I *989:S O *C 23.526 61.6895 *L 0 *D ADDFX1

*CAP
1 *191:1 6.15648e-06
2 *191:2 1.01716e-05
3 *191:3 4.01509e-06
4 *191:4 1.55525e-05
5 *191:5 1.55525e-05
6 *191:6 0.0001863
7 *191:7 0.0001863
8 *191:8 0.000233288
9 *191:9 0.000233288
10 *191:10 1.90048e-05
11 *191:11 2.48936e-05
12 *191:12 5.8888e-06

*RES
1 *191:12 *989:S 1.4
2 *191:11 *191:12 0.0471421
3 *191:10 *191:11 0.15214
4 *191:9 *191:10 1.4
5 *191:8 *191:9 1.86425
6 *191:7 *191:8 1.4
7 *191:6 *191:7 1.49141
8 *191:5 *191:6 1.4
9 *191:4 *191:5 0.124283
10 *191:3 *191:4 1.4
11 *191:2 *191:3 0.0321424
12 *191:1 *191:2 0.0492849
13 *779:D *191:1 1.4
*END

*D_NET *192 0.00172487

*CONN
*I *778:D I *C 16.232 78.882 *L 0.00276 *D SDFFRHQX1
*I *990:S O *C 22.7925 69.8865 *L 0 *D ADDFX1

*CAP
1 *192:1 7.10615e-06
2 *192:2 0.000495625
3 *192:3 0.000488519
4 *192:4 0.000357708
5 *192:5 0.000357708
6 *192:6 7.49484e-06
7 *192:7 9.10088e-06
8 *192:8 1.60604e-06

*RES
1 *192:8 *990:S 1.4
2 *192:7 *192:8 0.0128569
3 *192:6 *192:7 0.0599991
4 *192:5 *192:6 1.4
5 *192:4 *192:5 2.85851
6 *192:3 *192:4 1.4
7 *192:2 *192:3 3.91495
8 *192:1 *192:2 0.0578584
9 *778:D *192:1 1.4
*END

*D_NET *193 0.0014797

*CONN
*I *777:D I *C 18.1635 86.907 *L 0.00276 *D SDFFRHQX1
*I *991:S O *C 23.5715 78.501 *L 0 *D ADDFX1

*CAP
1 *193:1 2.10553e-06
2 *193:2 4.73743e-06
3 *193:3 2.63191e-06
4 *193:4 0.000291898
5 *193:5 0.000291898
6 *193:6 0.000439792
7 *193:7 0.000443213
8 *193:8 3.42148e-06

*RES
1 *193:8 *991:S 1.4
2 *193:7 *193:8 0.0278577
3 *193:6 *193:7 3.58079
4 *193:5 *193:6 1.4
5 *193:4 *193:5 2.36138
6 *193:3 *193:4 1.4
7 *193:2 *193:3 0.021429
8 *193:1 *193:2 0.0171432
9 *777:D *193:1 1.4
*END

*D_NET *194 0.000683657

*CONN
*I *776:D I *C 28.0155 87.74 *L 0.00276 *D SDFFRHQX1
*I *992:S O *C 28.8475 82.116 *L 0 *D ADDFX1

*CAP
1 *194:1 1.55005e-06
2 *194:2 1.73089e-05
3 *194:3 1.57589e-05
4 *194:4 4.93857e-05
5 *194:5 4.93857e-05
6 *194:6 0.000274876
7 *194:7 0.000275134
8 *194:8 2.58342e-07

*RES
1 *194:8 *992:S 1.4
2 *194:7 *194:8 0.00214291
3 *194:6 *194:7 2.28006
4 *194:5 *194:6 1.4
5 *194:4 *194:5 0.372866
6 *194:3 *194:4 1.4
7 *194:2 *194:3 0.130717
8 *194:1 *194:2 0.0128575
9 *776:D *194:1 1.4
*END

*D_NET *195 0.000494924

*CONN
*I *775:D I *C 40.3685 84.9055 *L 0.00276 *D SDFFRHQX1
*I *993:S O *C 39.338 81.75 *L 0 *D ADDFX1

*CAP
1 *195:1 4.39181e-06
2 *195:2 8.52528e-06
3 *195:3 4.13347e-06
4 *195:4 3.29238e-05
5 *195:5 3.29238e-05
6 *195:6 0.000164822
7 *195:7 0.000164822
8 *195:8 3.29238e-05
9 *195:9 3.29238e-05
10 *195:10 5.94186e-06
11 *195:11 8.26694e-06
12 *195:12 2.32508e-06

*RES
1 *195:12 *993:S 1.4
2 *195:11 *195:12 0.0192862
3 *195:10 *195:11 0.0492869
4 *195:9 *195:10 1.4
5 *195:8 *195:9 0.248578
6 *195:7 *195:8 1.4
7 *195:6 *195:7 1.36718
8 *195:5 *195:6 1.4
9 *195:4 *195:5 0.248578
10 *195:3 *195:4 1.4
11 *195:2 *195:3 0.0342866
12 *195:1 *195:2 0.0364295
13 *775:D *195:1 1.4
*END

*D_NET *196 0.000414465

*CONN
*I *774:D I *C 47.098 83.231 *L 0.00276 *D SDFFRHQX1
*I *994:S O *C 46.337 80.5705 *L 0 *D ADDFX1

*CAP
1 *196:1 1.29171e-06
2 *196:2 8.78362e-06
3 *196:3 7.49191e-06
4 *196:4 4.93857e-05
5 *196:5 4.93857e-05
6 *196:6 0.00014493
7 *196:7 0.000149063
8 *196:8 4.13347e-06

*RES
1 *196:8 *994:S 1.4
2 *196:7 *196:8 0.0342866
3 *196:6 *196:7 1.20217
4 *196:5 *196:6 1.4
5 *196:4 *196:5 0.372866
6 *196:3 *196:4 1.4
7 *196:2 *196:3 0.0621444
8 *196:1 *196:2 0.0107145
9 *774:D *196:1 1.4
*END

*D_NET *197 0.000566561

*CONN
*I *773:D I *C 57.085 83.172 *L 0.00276 *D SDFFRHQX1
*I *995:S O *C 54.8255 80.14 *L 0 *D ADDFX1

*CAP
1 *197:1 5.17473e-06
2 *197:2 9.57325e-06
3 *197:3 4.39852e-06
4 *197:4 6.54767e-05
5 *197:5 6.54767e-05
6 *197:6 0.000150067
7 *197:7 0.000150067
8 *197:8 4.91075e-05
9 *197:9 4.91075e-05
10 *197:10 2.32863e-06
11 *197:11 9.05577e-06
12 *197:12 6.72715e-06

*RES
1 *197:12 *995:S 1.4
2 *197:11 *197:12 0.0557133
3 *197:10 *197:11 0.0192854
4 *197:9 *197:10 1.4
5 *197:8 *197:9 0.372849
6 *197:7 *197:8 1.4
7 *197:6 *197:7 1.24284
8 *197:5 *197:6 1.4
9 *197:4 *197:5 0.497132
10 *197:3 *197:4 1.4
11 *197:2 *197:3 0.0364279
12 *197:1 *197:2 0.0428564
13 *773:D *197:1 1.4
*END

*D_NET *198 0.000523198

*CONN
*I *772:D I *C 68.282 82.646 *L 0.00276 *D SDFFRHQX1
*I *996:S O *C 67.0755 79.811 *L 0 *D ADDFX1

*CAP
1 *198:1 7.76209e-07
2 *198:2 2.3545e-05
3 *198:3 2.27688e-05
4 *198:4 6.54767e-05
5 *198:5 6.54767e-05
6 *198:6 0.000169472
7 *198:7 0.000172577
8 *198:8 3.10484e-06

*RES
1 *198:8 *996:S 1.4
2 *198:7 *198:8 0.0257138
3 *198:6 *198:7 1.40355
4 *198:5 *198:6 1.4
5 *198:4 *198:5 0.497132
6 *198:3 *198:4 1.4
7 *198:2 *198:3 0.188568
8 *198:1 *198:2 0.00642846
9 *772:D *198:1 1.4
*END

*D_NET *199 0.000596679

*CONN
*I *771:D I *C 74.9385 84.893 *L 0.00276 *D SDFFRHQX1
*I *997:S O *C 73.779 80.4455 *L 0 *D ADDFX1

*CAP
1 *199:1 1.29368e-06
2 *199:2 4.91599e-06
3 *199:3 3.62231e-06
4 *199:4 3.27383e-05
5 *199:5 3.27383e-05
6 *199:6 0.000225101
7 *199:7 0.000225101
8 *199:8 3.27383e-05
9 *199:9 3.27383e-05
10 *199:10 1.55242e-06
11 *199:11 2.8461e-06
12 *199:12 1.29368e-06

*RES
1 *199:12 *997:S 1.4
2 *199:11 *199:12 0.0107141
3 *199:10 *199:11 0.0128569
4 *199:9 *199:10 1.4
5 *199:8 *199:9 0.248566
6 *199:7 *199:8 1.4
7 *199:6 *199:7 1.86425
8 *199:5 *199:6 1.4
9 *199:4 *199:5 0.248566
10 *199:3 *199:4 1.4
11 *199:2 *199:3 0.0299995
12 *199:1 *199:2 0.0107141
13 *771:D *199:1 1.4
*END

*D_NET *200 0.00143286

*CONN
*I *770:D I *C 88.903 88.0855 *L 0.00276 *D SDFFRHQX1
*I *998:S O *C 81.991 81.966 *L 0 *D ADDFX1

*CAP
1 *200:1 1.06365e-06
2 *200:2 4.78645e-06
3 *200:3 3.72279e-06
4 *200:4 0.000386429
5 *200:5 0.000386429
6 *200:6 0.000321756
7 *200:7 0.000325212
8 *200:8 3.45688e-06

*RES
1 *200:8 *998:S 1.4
2 *200:7 *200:8 0.0278578
3 *200:6 *200:7 2.59292
4 *200:5 *200:6 1.4
5 *200:4 *200:5 2.98279
6 *200:3 *200:4 1.4
7 *200:2 *200:3 0.0300007
8 *200:1 *200:2 0.00857164
9 *770:D *200:1 1.4
*END

*D_NET *201 0.001256

*CONN
*I *769:D I *C 98.0565 86.6825 *L 0.00276 *D SDFFRHQX1
*I *999:S O *C 91.405 82.038 *L 0 *D ADDFX1

*CAP
1 *201:1 5.8501e-06
2 *201:2 1.2232e-05
3 *201:3 6.38193e-06
4 *201:4 0.000370327
5 *201:5 0.000370327
6 *201:6 0.000240652
7 *201:7 0.000245438
8 *201:8 4.78645e-06

*RES
1 *201:8 *999:S 1.4
2 *201:7 *201:8 0.0385724
3 *201:6 *201:7 1.93933
4 *201:5 *201:6 1.4
5 *201:4 *201:5 2.85851
6 *201:3 *201:4 1.4
7 *201:2 *201:3 0.0514298
8 *201:1 *201:2 0.047144
9 *769:D *201:1 1.4
*END

*D_NET *202 0.000394158

*CONN
*I *768:D I *C 98.6565 76.6575 *L 0.00276 *D SDFFRHQX1
*I *1000:S O *C 95.2835 76.927 *L 0 *D ADDFX1

*CAP
1 *202:1 4.73045e-06
2 *202:2 7.09568e-06
3 *202:3 2.36523e-06
4 *202:4 0.000177369
5 *202:5 0.000177369
6 *202:6 1.15633e-05
7 *202:7 1.26145e-05
8 *202:8 1.05121e-06

*RES
1 *202:8 *1000:S 1.4
2 *202:7 *202:8 0.00857154
3 *202:6 *202:7 0.0942869
4 *202:5 *202:6 1.4
5 *202:4 *202:5 1.4914
6 *202:3 *202:4 1.4
7 *202:2 *202:3 0.019286
8 *202:1 *202:2 0.0385719
9 *768:D *202:1 1.4
*END

*D_NET *203 0.000259777

*CONN
*I *767:D I *C 95.1925 63.8335 *L 0.00276 *D SDFFRHQX1
*I *1001:S O *C 94.8515 65.8285 *L 0 *D ADDFX1

*CAP
1 *203:1 3.67924e-06
2 *203:2 9.4609e-06
3 *203:3 5.78166e-06
4 *203:4 1.47807e-05
5 *203:5 1.47807e-05
6 *203:6 9.90767e-05
7 *203:7 0.000105647
8 *203:8 6.57007e-06

*RES
1 *203:8 *1001:S 1.4
2 *203:7 *203:8 0.0535721
3 *203:6 *203:7 0.807868
4 *203:5 *203:6 1.4
5 *203:4 *203:5 0.124283
6 *203:3 *203:4 1.4
7 *203:2 *203:3 0.0471435
8 *203:1 *203:2 0.0300004
9 *767:D *203:1 1.4
*END

*D_NET *204 0.000250841

*CONN
*I *766:D I *C 95.08 56.68 *L 0.00276 *D SDFFRHQX1
*I *1002:S O *C 94.6615 58.6565 *L 0 *D ADDFX1

*CAP
1 *204:1 5.51886e-06
2 *204:2 6.30727e-06
3 *204:3 7.88408e-07
4 *204:4 1.47807e-05
5 *204:5 1.47807e-05
6 *204:6 0.000103019
7 *204:7 0.000104333
8 *204:8 1.31401e-06

*RES
1 *204:8 *1002:S 1.4
2 *204:7 *204:8 0.0107144
3 *204:6 *204:7 0.840011
4 *204:5 *204:6 1.4
5 *204:4 *204:5 0.124283
6 *204:3 *204:4 1.4
7 *204:2 *204:3 0.00642866
8 *204:1 *204:2 0.0450006
9 *766:D *204:1 1.4
*END

*D_NET *205 0.000524483

*CONN
*I *765:D I *C 96.8095 42.4605 *L 0.00276 *D SDFFRHQX1
*I *1003:S O *C 95.973 46.1155 *L 0 *D ADDFX1

*CAP
1 *205:1 4.93477e-06
2 *205:2 0.000202066
3 *205:3 0.000197131
4 *205:4 4.61505e-05
5 *205:5 4.61505e-05
6 *205:6 7.2723e-06
7 *205:7 1.40251e-05
8 *205:8 6.75285e-06

*RES
1 *205:8 *1003:S 1.4
2 *205:7 *205:8 0.0557129
3 *205:6 *205:7 0.0599985
4 *205:5 *205:6 1.4
5 *205:4 *205:5 0.372863
6 *205:3 *205:4 1.4
7 *205:2 *205:3 1.62639
8 *205:1 *205:2 0.0407133
9 *765:D *205:1 1.4
*END

*D_NET *206 0.000309073

*CONN
*I *764:D I *C 97.0165 33.5125 *L 0.00276 *D SDFFRHQX1
*I *1004:S O *C 96.921 36.397 *L 0 *D ADDFX1

*CAP
1 *206:1 5.1945e-07
2 *206:2 0.000150121
3 *206:3 0.000154017
4 *206:4 4.41532e-06

*RES
1 *206:4 *1004:S 1.4
2 *206:3 *206:4 0.0364277
3 *206:2 *206:3 1.23426
4 *206:1 *206:2 0.00428561
5 *764:D *206:1 1.4
*END

*D_NET *207 0.00121922

*CONN
*I *763:D I *C 101.744 29.414 *L 0.00276 *D SDFFRHQX1
*I *1005:Y O *C 92.6645 31.65 *L 0 *D AOI2BB1X1

*CAP
1 *207:1 5.1945e-06
2 *207:2 0.000126746
3 *207:3 0.000121551
4 *207:4 0.000476889
5 *207:5 0.000476889
6 *207:6 5.45422e-06
7 *207:7 5.97367e-06
8 *207:8 5.1945e-07

*RES
1 *207:8 *1005:Y 1.4
2 *207:7 *207:8 0.00428561
3 *207:6 *207:7 0.0449989
4 *207:5 *207:6 1.4
5 *207:4 *207:5 3.85292
6 *207:3 *207:4 1.4
7 *207:2 *207:3 1.00283
8 *207:1 *207:2 0.0428561
9 *763:D *207:1 1.4
*END

*D_NET *208 0.00182946

*CONN
*I *829:SI I *C 77.846 36.3115 *L 0.00276 *D SDFFRHQX1
*I *1006:A I *C 68.455 38.5635 *L 0.00177 *D XNOR2X1
*I *828:Q O *C 64.249 40.253 *L 0 *D SDFFRHQX1

*CAP
1 *208:1 1.00631e-06
2 *208:2 1.00631e-06
3 *208:4 1.88683e-05
4 *208:5 1.88683e-05
5 *208:6 0.000447396
6 *208:7 0.000447396
7 *208:8 4.37745e-05
8 *208:9 4.37745e-05
9 *208:10 0.000195736
10 *208:11 5.08187e-05
11 *208:12 0.000195736
12 *208:13 5.73597e-05
13 *208:14 0.000131324
14 *208:15 6.54102e-06
15 *208:16 0.000131324
16 *208:18 1.39811e-05
17 *208:19 1.39811e-05
18 *208:20 4.5284e-06
19 *208:21 5.28313e-06
20 *208:22 7.54733e-07

*RES
1 *208:22 *828:Q 1.4
2 *208:21 *208:22 0.00642841
3 *208:20 *208:21 0.0385705
4 *208:19 *208:20 1.4
5 *208:18 *208:19 0.124283
6 *208:16 *208:18 1.4
7 *208:15 *1006:A 1.4
8 *208:14 *208:16 1.11854
9 *208:13 *208:15 0.0557129
10 *208:12 *208:14 1.4
11 *208:11 *208:13 0.432847
12 *208:10 *208:12 1.73996
13 *208:10 *208:11 1.4
14 *208:9 *208:10 1.4
15 *208:8 *208:9 0.372848
16 *208:7 *208:8 1.4
17 *208:6 *208:7 3.97705
18 *208:5 *208:6 1.4
19 *208:4 *208:5 0.16071
20 *208:3 *208:4 1.4
21 *208:2 *208:3 1.4
22 *208:1 *208:2 0.00857122
23 *829:SI *208:1 1.4
*END

*D_NET *209 0.00225612

*CONN
*I *828:SI I *C 72.659 40.833 *L 0.00276 *D SDFFRHQX1
*I *975:B I *C 67.4925 50.185 *L 0.00625 *D ADDFX1
*I *827:Q O *C 63.524 54.119 *L 0 *D SDFFRHQX1

*CAP
1 *209:1 7.54733e-07
2 *209:2 7.54733e-07
3 *209:4 0.000491583
4 *209:5 0.000491583
5 *209:6 0.00025166
6 *209:7 0.000433414
7 *209:8 2.11325e-05
8 *209:9 0.000181754
9 *209:10 2.46546e-05
10 *209:11 0.000171479
11 *209:12 3.52209e-06
12 *209:13 0.000177656
13 *209:15 6.17675e-06

*RES
1 *209:15 *827:Q 1.4
2 *209:13 *209:15 0.0557141
3 *209:12 *975:B 1.4
4 *209:11 *209:13 1.50641
5 *209:10 *209:12 0.0299993
6 *209:9 *209:11 1.4
7 *209:8 *209:10 0.179996
8 *209:7 *209:9 1.61567
9 *209:7 *209:8 1.4
10 *209:6 *209:7 2.23709
11 *209:5 *209:6 1.4
12 *209:4 *209:5 4.18704
13 *209:3 *209:4 1.4
14 *209:2 *209:3 1.4
15 *209:1 *209:2 0.00642841
16 *828:SI *209:1 1.4
*END

*D_NET *210 0.00162709

*CONN
*I *827:SI I *C 71.934 54.699 *L 0.00276 *D SDFFRHQX1
*I *976:B I *C 65.1365 57.722 *L 0.00625 *D ADDFX1
*I *826:Q O *C 60.8485 59.092 *L 0 *D SDFFRHQX1

*CAP
1 *210:1 6.17675e-06
2 *210:2 7.83972e-06
3 *210:3 1.66297e-06
4 *210:4 0.00036444
5 *210:5 0.00036444
6 *210:6 0.000151568
7 *210:7 0.000206684
8 *210:8 5.51156e-05
9 *210:9 1.45776e-05
10 *210:10 0.000204087
11 *210:11 1.45776e-05
12 *210:12 0.000204087
13 *210:13 6.41432e-06
14 *210:14 3.56351e-06
15 *210:15 7.83972e-06
16 *210:16 8.07729e-06
17 *210:17 1.4254e-06
18 *210:18 4.51378e-06

*RES
1 *210:18 *826:Q 1.4
2 *210:17 *976:B 1.4
3 *210:16 *210:18 0.0407141
4 *210:15 *210:17 0.0128571
5 *210:14 *210:16 0.0321427
6 *210:13 *210:15 0.0578569
7 *210:12 *210:14 1.4
8 *210:11 *210:13 1.4
9 *210:10 *210:12 1.74004
10 *210:9 *210:11 0.124289
11 *210:8 *210:10 1.4
12 *210:7 *210:9 1.4
13 *210:7 *210:8 0.497141
14 *210:6 *210:7 1.36714
15 *210:5 *210:6 1.4
16 *210:4 *210:5 3.10722
17 *210:3 *210:4 1.4
18 *210:2 *210:3 0.0149999
19 *210:1 *210:2 0.0557141
20 *827:SI *210:1 1.4
*END

*D_NET *211 0.00278532

*CONN
*I *826:SI I *C 69.2585 59.672 *L 0.00276 *D SDFFRHQX1
*I *977:B I *C 49.2195 59.4415 *L 0.00625 *D ADDFX1
*I *825:Q O *C 41.809 59.2075 *L 0 *D SDFFRHQX1

*CAP
1 *211:1 4.51378e-06
2 *211:2 2.18562e-05
3 *211:3 1.73424e-05
4 *211:4 0.00100045
5 *211:5 0.001352
6 *211:6 6.50787e-06
7 *211:7 0.000351559
8 *211:8 9.6413e-06
9 *211:9 4.57962e-06
10 *211:10 3.13342e-06
11 *211:11 9.15923e-06
12 *211:13 4.57962e-06

*RES
1 *211:13 *825:Q 1.4
2 *211:11 *211:13 0.0407133
3 *211:10 *977:B 1.4
4 *211:9 *211:11 0.0407133
5 *211:8 *211:10 0.0278565
6 *211:7 *211:9 1.4
7 *211:6 *211:8 0.0578557
8 *211:5 *211:7 3.10707
9 *211:5 *211:6 1.4
10 *211:4 *211:5 8.57586
11 *211:3 *211:4 1.4
12 *211:2 *211:3 0.156428
13 *211:1 *211:2 0.0407141
14 *826:SI *211:1 1.4
*END

*D_NET *212 0.00151771

*CONN
*I *825:SI I *C 50.219 59.7875 *L 0.00276 *D SDFFRHQX1
*I *978:B I *C 44.5385 57.0355 *L 0.00625 *D ADDFX1
*I *824:Q O *C 38.9885 55.8015 *L 0 *D SDFFRHQX1

*CAP
1 *212:1 4.57962e-06
2 *212:2 0.000125819
3 *212:3 0.000121239
4 *212:4 0.000281247
5 *212:5 0.000548432
6 *212:6 1.15696e-05
7 *212:7 0.000267185
8 *212:8 1.27747e-05
9 *212:9 7.11046e-05
10 *212:10 1.20516e-06
11 *212:11 7.18277e-05
12 *212:13 7.23097e-07

*RES
1 *212:13 *824:Q 1.4
2 *212:11 *212:13 0.00642841
3 *212:10 *978:B 1.4
4 *212:9 *212:11 0.632127
5 *212:8 *212:10 0.010714
6 *212:7 *212:9 1.4
7 *212:6 *212:8 0.102855
8 *212:5 *212:7 2.36137
9 *212:5 *212:6 1.4
10 *212:4 *212:5 2.48565
11 *212:3 *212:4 1.4
12 *212:2 *212:3 1.07783
13 *212:1 *212:2 0.0407133
14 *825:SI *212:1 1.4
*END

*D_NET *213 0.00241038

*CONN
*I *824:SI I *C 47.3985 56.3815 *L 0.00276 *D SDFFRHQX1
*I *979:B I *C 43.978 43.992 *L 0.00625 *D ADDFX1
*I *823:Q O *C 39.623 40.528 *L 0 *D SDFFRHQX1

*CAP
1 *213:1 7.23097e-07
2 *213:2 7.23097e-07
3 *213:4 0.000617083
4 *213:5 0.000617083
5 *213:6 0.000165525
6 *213:7 0.000165525
7 *213:8 0.000192328
8 *213:9 2.7655e-06
9 *213:10 0.000189563
10 *213:12 0.000206906
11 *213:13 2.26268e-06
12 *213:14 0.000206906
13 *213:15 2.26268e-06
14 *213:16 1.83529e-05
15 *213:18 2.03642e-05
16 *213:19 2.01127e-06

*RES
1 *213:19 *823:Q 1.4
2 *213:18 *213:19 0.0171433
3 *213:16 *213:18 0.156432
4 *213:15 *979:B 1.4
5 *213:14 *213:16 1.4
6 *213:13 *213:15 0.0192862
7 *213:12 *213:14 1.86424
8 *213:11 *213:13 1.4
9 *213:10 *213:12 1.4
10 *213:9 *213:11 1.4
11 *213:8 *213:10 1.61575
12 *213:8 *213:9 0.023572
13 *213:7 *213:8 1.4
14 *213:6 *213:7 1.49139
15 *213:5 *213:6 1.4
16 *213:4 *213:5 5.33361
17 *213:3 *213:4 1.4
18 *213:2 *213:3 1.4
19 *213:1 *213:2 0.00642841
20 *824:SI *213:1 1.4
*END

*D_NET *214 0.00136447

*CONN
*I *823:SI I *C 48.033 41.108 *L 0.00276 *D SDFFRHQX1
*I *980:B I *C 44.8105 36.827 *L 0.00625 *D ADDFX1
*I *822:Q O *C 40.751 34.592 *L 0 *D SDFFRHQX1

*CAP
1 *214:1 2.01127e-06
2 *214:2 0.000224508
3 *214:3 0.000222497
4 *214:4 0.000151731
5 *214:5 0.000344843
6 *214:6 7.03946e-06
7 *214:7 0.000193112
8 *214:8 7.29087e-06
9 *214:9 0.00010534
10 *214:10 2.51409e-07
11 *214:11 0.000105592
12 *214:13 2.51409e-07

*RES
1 *214:13 *822:Q 1.4
2 *214:11 *214:13 0.00214291
3 *214:10 *980:B 1.4
4 *214:9 *214:11 0.897879
5 *214:8 *214:10 0.00214291
6 *214:7 *214:9 1.4
7 *214:6 *214:8 0.0600015
8 *214:5 *214:7 1.73996
9 *214:5 *214:6 1.4
10 *214:4 *214:5 1.36711
11 *214:3 *214:4 1.4
12 *214:2 *214:3 1.89647
13 *214:1 *214:2 0.0171433
14 *823:SI *214:1 1.4
*END

*D_NET *215 0.00211716

*CONN
*I *822:SI I *C 49.161 35.172 *L 0.00276 *D SDFFRHQX1
*I *981:B I *C 45.0315 26.0045 *L 0.00625 *D ADDFX1
*I *821:Q O *C 40.8435 23.853 *L 0 *D SDFFRHQX1

*CAP
1 *215:1 2.51409e-07
2 *215:2 0.00046396
3 *215:3 0.000463709
4 *215:4 0.000228076
5 *215:5 0.000472444
6 *215:6 2.6388e-06
7 *215:7 0.000244368
8 *215:8 6.06925e-06
9 *215:9 0.00011083
10 *215:10 3.43044e-06
11 *215:11 0.000116107
12 *215:13 5.2776e-06

*RES
1 *215:13 *821:Q 1.4
2 *215:11 *215:13 0.0428564
3 *215:10 *981:B 1.4
4 *215:9 *215:11 0.899984
5 *215:8 *215:10 0.0278566
6 *215:7 *215:9 1.4
7 *215:6 *215:8 0.0214282
8 *215:5 *215:7 1.86424
9 *215:5 *215:6 1.4
10 *215:4 *215:5 1.73996
11 *215:3 *215:4 1.4
12 *215:2 *215:3 3.94938
13 *215:1 *215:2 0.00214291
14 *822:SI *215:1 1.4
*END

*D_NET *216 0.00218888

*CONN
*I *821:SI I *C 49.2535 24.433 *L 0.00276 *D SDFFRHQX1
*I *982:B I *C 42.429 18.3065 *L 0.00625 *D ADDFX1
*I *820:Q O *C 37.769 16.525 *L 0 *D SDFFRHQX1

*CAP
1 *216:1 5.2776e-06
2 *216:2 8.97193e-06
3 *216:3 3.69432e-06
4 *216:4 0.000390988
5 *216:5 0.000390988
6 *216:6 0.000321406
7 *216:7 0.000321406
8 *216:8 0.000260659
9 *216:9 1.62912e-05
10 *216:10 0.000244368
11 *216:11 5.80536e-06
12 *216:12 9.97467e-05
13 *216:13 8.70805e-06
14 *216:14 0.000103705
15 *216:15 2.90268e-06
16 *216:16 3.9582e-06

*RES
1 *216:16 *820:Q 1.4
2 *216:15 *982:B 1.4
3 *216:14 *216:16 0.0321423
4 *216:13 *216:15 0.023571
5 *216:12 *216:14 0.809985
6 *216:11 *216:13 0.047142
7 *216:10 *216:12 1.4
8 *216:9 *216:11 1.4
9 *216:8 *216:10 1.86424
10 *216:8 *216:9 0.124283
11 *216:7 *216:8 1.4
12 *216:6 *216:7 2.60995
13 *216:5 *216:6 1.4
14 *216:4 *216:5 2.98278
15 *216:3 *216:4 1.4
16 *216:2 *216:3 0.0299995
17 *216:1 *216:2 0.0428564
18 *821:SI *216:1 1.4
*END

*D_NET *217 0.00228568

*CONN
*I *820:SI I *C 46.179 17.105 *L 0.00276 *D SDFFRHQX1
*I *983:B I *C 33.6605 15.88 *L 0.00625 *D ADDFX1
*I *819:Q O *C 27.279 16.1325 *L 0 *D SDFFRHQX1

*CAP
1 *217:1 3.9582e-06
2 *217:2 5.7262e-05
3 *217:3 5.33038e-05
4 *217:4 0.00070052
5 *217:5 0.00105893
6 *217:6 1.13468e-05
7 *217:7 0.000358406
8 *217:8 1.79439e-05
9 *217:9 2.11104e-06
10 *217:10 6.59701e-06
11 *217:11 8.70805e-06
12 *217:13 6.59701e-06

*RES
1 *217:13 *819:Q 1.4
2 *217:11 *217:13 0.0535705
3 *217:10 *983:B 1.4
4 *217:9 *217:11 0.0171425
5 *217:8 *217:10 0.0535705
6 *217:7 *217:9 1.4
7 *217:6 *217:8 0.0921412
8 *217:5 *217:7 2.73422
9 *217:5 *217:6 1.4
10 *217:4 *217:5 5.34415
11 *217:3 *217:4 1.4
12 *217:2 *217:3 0.432849
13 *217:1 *217:2 0.0321423
14 *820:SI *217:1 1.4
*END

*D_NET *218 0.00240474

*CONN
*I *819:SI I *C 35.689 16.7125 *L 0.00276 *D SDFFRHQX1
*I *984:B I *C 22.507 17.576 *L 0.00625 *D ADDFX1
*I *818:Q O *C 16.4355 19.018 *L 0 *D SDFFRHQX1

*CAP
1 *218:1 6.59701e-06
2 *218:2 8.70805e-06
3 *218:3 2.11104e-06
4 *218:4 0.000741475
5 *218:5 0.000741475
6 *218:6 4.57888e-05
7 *218:7 0.00011956
8 *218:8 7.22445e-05
9 *218:9 1.52629e-06
10 *218:10 0.000328811
11 *218:12 0.000328811
12 *218:13 1.27191e-06
13 *218:14 3.81573e-06
14 *218:15 2.54382e-06

*RES
1 *218:15 *818:Q 1.4
2 *218:14 *218:15 0.0214283
3 *218:13 *218:14 0.0107141
4 *218:12 *218:13 1.4
5 *218:10 *218:12 2.61006
6 *218:9 *984:B 1.4
7 *218:8 *218:10 1.4
8 *218:7 *218:9 0.012857
9 *218:7 *218:8 0.608563
10 *218:6 *218:7 0.385709
11 *218:5 *218:6 1.4
12 *218:4 *218:5 5.71708
13 *218:3 *218:4 1.4
14 *218:2 *218:3 0.0171425
15 *218:1 *218:2 0.0535705
16 *819:SI *218:1 1.4
*END

*D_NET *219 0.0019151

*CONN
*I *818:SI I *C 24.8455 19.598 *L 0.00276 *D SDFFRHQX1
*I *985:B I *C 18.869 24.751 *L 0.00625 *D ADDFX1
*I *817:Q O *C 15.118 27.901 *L 0 *D SDFFRHQX1

*CAP
1 *219:1 2.54382e-06
2 *219:2 0.000266847
3 *219:3 0.000264303
4 *219:4 0.000313153
5 *219:5 0.000516703
6 *219:6 2.28944e-06
7 *219:7 0.00020355
8 *219:8 8.64899e-06
9 *219:9 0.000159898
10 *219:10 6.35955e-06
11 *219:11 0.000165352
12 *219:13 5.45441e-06

*RES
1 *219:13 *817:Q 1.4
2 *219:11 *219:13 0.0449989
3 *219:10 *985:B 1.4
4 *219:9 *219:11 1.33069
5 *219:8 *219:10 0.0535707
6 *219:7 *219:9 1.4
7 *219:6 *219:8 0.0192854
8 *219:5 *219:7 1.61575
9 *219:5 *219:6 1.4
10 *219:4 *219:5 2.48578
11 *219:3 *219:4 1.4
12 *219:2 *219:3 2.2264
13 *219:1 *219:2 0.0214283
14 *818:SI *219:1 1.4
*END

*D_NET *220 0.00186933

*CONN
*I *817:SI I *C 23.528 28.481 *L 0.00276 *D SDFFRHQX1
*I *986:B I *C 18.735 34.78 *L 0.00625 *D ADDFX1
*I *816:Q O *C 16.1095 36.6085 *L 0 *D SDFFRHQX1

*CAP
1 *220:1 5.45441e-06
2 *220:2 0.000311161
3 *220:3 0.000305707
4 *220:4 0.00023696
5 *220:5 0.00023696
6 *220:6 1.50646e-05
7 *220:7 0.00016571
8 *220:8 0.000150646
9 *220:9 1.481e-05
10 *220:10 0.0001481
11 *220:11 1.481e-05
12 *220:12 0.0001481
13 *220:13 6.49335e-06
14 *220:14 4.90897e-05
15 *220:15 8.05175e-06
16 *220:16 4.98689e-05
17 *220:17 1.5584e-06
18 *220:18 7.79202e-07

*RES
1 *220:18 *816:Q 1.4
2 *220:17 *986:B 1.4
3 *220:16 *220:18 0.00642841
4 *220:15 *220:17 0.0128568
5 *220:14 *220:16 0.40499
6 *220:13 *220:15 0.0535701
7 *220:12 *220:14 1.4
8 *220:11 *220:13 1.4
9 *220:10 *220:12 1.24283
10 *220:9 *220:11 0.124283
11 *220:8 *220:10 1.4
12 *220:7 *220:9 1.4
13 *220:7 *220:8 1.24283
14 *220:6 *220:7 0.124283
15 *220:5 *220:6 1.4
16 *220:4 *220:5 1.98853
17 *220:3 *220:4 1.4
18 *220:2 *220:3 2.52208
19 *220:1 *220:2 0.0449989
20 *817:SI *220:1 1.4
*END

*D_NET *221 0.00149945

*CONN
*I *816:SI I *C 24.5195 37.1885 *L 0.00276 *D SDFFRHQX1
*I *987:B I *C 19.345 42.192 *L 0.00625 *D ADDFX1
*I *815:Q O *C 17.0405 43.184 *L 0 *D SDFFRHQX1

*CAP
1 *221:1 7.79202e-07
2 *221:2 4.67521e-06
3 *221:3 3.89601e-06
4 *221:4 0.00025177
5 *221:5 0.00025177
6 *221:6 0.000301291
7 *221:7 0.000301291
8 *221:8 1.481e-05
9 *221:9 0.00013329
10 *221:10 4.54535e-05
11 *221:11 0.00011848
12 *221:12 4.85703e-05
13 *221:13 6.23362e-06
14 *221:14 3.11681e-06
15 *221:15 1.01296e-05
16 *221:17 3.89601e-06

*RES
1 *221:17 *815:Q 1.4
2 *221:15 *221:17 0.0321421
3 *221:14 *987:B 1.4
4 *221:13 *221:15 0.0514273
5 *221:12 *221:14 0.0257137
6 *221:11 *221:13 1.4
7 *221:10 *221:12 0.374991
8 *221:9 *221:11 0.994266
9 *221:9 *221:10 1.4
10 *221:8 *221:9 0.124283
11 *221:7 *221:8 1.4
12 *221:6 *221:7 2.48565
13 *221:5 *221:6 1.4
14 *221:4 *221:5 2.11281
15 *221:3 *221:4 1.4
16 *221:2 *221:3 0.0321421
17 *221:1 *221:2 0.00642841
18 *816:SI *221:1 1.4
*END

*D_NET *222 0.00223624

*CONN
*I *815:SI I *C 25.4505 43.764 *L 0.00276 *D SDFFRHQX1
*I *988:B I *C 19.6615 54.3385 *L 0.00625 *D ADDFX1
*I *814:Q O *C 17.808 57.165 *L 0 *D SDFFRHQX1

*CAP
1 *222:1 3.89601e-06
2 *222:2 0.00044983
3 *222:3 0.000445934
4 *222:4 0.00031105
5 *222:5 0.00031105
6 *222:6 0.000106801
7 *222:7 0.000206376
8 *222:8 9.50239e-05
9 *222:9 4.55044e-06
10 *222:10 9.3315e-05
11 *222:12 9.3315e-05
12 *222:13 5.62113e-05
13 *222:14 5.75497e-05
14 *222:15 1.33836e-06

*RES
1 *222:15 *814:Q 1.4
2 *222:14 *222:15 0.0107141
3 *222:13 *222:14 0.449993
4 *222:12 *222:13 1.4
5 *222:10 *222:12 0.745698
6 *222:9 *988:B 1.4
7 *222:8 *222:10 1.4
8 *222:7 *222:9 0.036428
9 *222:7 *222:8 0.760702
10 *222:6 *222:7 0.854987
11 *222:5 *222:6 1.4
12 *222:4 *222:5 2.48566
13 *222:3 *222:4 1.4
14 *222:2 *222:3 3.67705
15 *222:1 *222:2 0.0321421
16 *815:SI *222:1 1.4
*END

*D_NET *223 0.00169999

*CONN
*I *814:SI I *C 26.218 57.745 *L 0.00276 *D SDFFRHQX1
*I *989:B I *C 19.466 62.5595 *L 0.00625 *D ADDFX1
*I *813:Q O *C 17.7895 63.241 *L 0 *D SDFFRHQX1

*CAP
1 *223:1 1.20516e-06
2 *223:2 6.50787e-06
3 *223:3 5.30271e-06
4 *223:4 0.000294752
5 *223:5 0.000294752
6 *223:6 0.00015525
7 *223:7 0.00015525
8 *223:8 6.221e-05
9 *223:9 0.000155525
10 *223:10 9.66299e-05
11 *223:11 9.3315e-05
12 *223:12 0.000102519
13 *223:13 0.000133033
14 *223:14 5.8888e-06
15 *223:15 0.000135443
16 *223:17 2.40906e-06

*RES
1 *223:17 *813:Q 1.4
2 *223:15 *223:17 0.0192854
3 *223:14 *989:B 1.4
4 *223:13 *223:15 1.06498
5 *223:12 *223:14 0.0471421
6 *223:11 *223:13 1.4
7 *223:10 *223:12 0.773559
8 *223:9 *223:11 0.745698
9 *223:9 *223:10 1.4
10 *223:8 *223:9 0.497132
11 *223:7 *223:8 1.4
12 *223:6 *223:7 1.24284
13 *223:5 *223:6 1.4
14 *223:4 *223:5 2.36138
15 *223:3 *223:4 1.4
16 *223:2 *223:3 0.0471417
17 *223:1 *223:2 0.010714
18 *814:SI *223:1 1.4
*END

*D_NET *224 0.00179668

*CONN
*I *813:SI I *C 26.1995 63.821 *L 0.00276 *D SDFFRHQX1
*I *990:B I *C 18.7325 70.7565 *L 0.00625 *D ADDFX1
*I *812:Q O *C 16.9185 69.914 *L 0 *D SDFFRHQX1

*CAP
1 *224:1 2.16929e-06
2 *224:2 8.1951e-06
3 *224:3 6.02581e-06
4 *224:4 0.000294752
5 *224:5 0.000294752
6 *224:6 0.000294976
7 *224:7 0.000294976
8 *224:8 0.000108868
9 *224:9 0.000202183
10 *224:10 6.9595e-05
11 *224:11 9.3315e-05
12 *224:12 7.1201e-05
13 *224:13 2.46259e-05
14 *224:14 1.60604e-06
15 *224:15 2.7035e-05
16 *224:17 2.40906e-06

*RES
1 *224:17 *812:Q 1.4
2 *224:15 *224:17 0.0192854
3 *224:14 *990:B 1.4
4 *224:13 *224:15 0.19714
5 *224:12 *224:14 0.0128569
6 *224:11 *224:13 1.4
7 *224:10 *224:12 0.557134
8 *224:9 *224:11 0.745698
9 *224:9 *224:10 1.4
10 *224:8 *224:9 0.869982
11 *224:7 *224:8 1.4
12 *224:6 *224:7 2.36139
13 *224:5 *224:6 1.4
14 *224:4 *224:5 2.36138
15 *224:3 *224:4 1.4
16 *224:2 *224:3 0.0535701
17 *224:1 *224:2 0.0192852
18 *813:SI *224:1 1.4
*END

*D_NET *225 0.00181118

*CONN
*I *812:SI I *C 25.3285 70.494 *L 0.00276 *D SDFFRHQX1
*I *991:B I *C 19.5115 79.371 *L 0.00625 *D ADDFX1
*I *811:Q O *C 17.7755 78.809 *L 0 *D SDFFRHQX1

*CAP
1 *225:1 2.40906e-06
2 *225:2 8.83321e-06
3 *225:3 6.42415e-06
4 *225:4 0.00031105
5 *225:5 0.00031105
6 *225:6 0.000419046
7 *225:7 0.000467736
8 *225:8 5.21118e-05
9 *225:9 9.21782e-05
10 *225:10 3.42148e-06
11 *225:11 9.21782e-05
12 *225:13 1.92129e-05
13 *225:14 2.23712e-05
14 *225:15 3.15829e-06

*RES
1 *225:15 *811:Q 1.4
2 *225:14 *225:15 0.0257148
3 *225:13 *225:14 0.156432
4 *225:11 *225:13 1.4
5 *225:10 *991:B 1.4
6 *225:9 *225:11 0.745699
7 *225:8 *225:10 0.0278577
8 *225:7 *225:9 1.4
9 *225:7 *225:8 0.396437
10 *225:6 *225:7 3.35566
11 *225:5 *225:6 1.4
12 *225:4 *225:5 2.48566
13 *225:3 *225:4 1.4
14 *225:2 *225:3 0.0514278
15 *225:1 *225:2 0.0192854
16 *812:SI *225:1 1.4
*END

*D_NET *226 0.000622812

*CONN
*I *811:SI I *C 26.1855 79.389 *L 0.00276 *D SDFFRHQX1
*I *992:B I *C 24.7875 82.986 *L 0.00625 *D ADDFX1
*I *810:Q O *C 24.198 80.804 *L 0 *D SDFFRHQX1

*CAP
1 *226:1 3.1001e-06
2 *226:2 6.97523e-06
3 *226:3 3.87513e-06
4 *226:4 7.73646e-05
5 *226:5 7.73646e-05
6 *226:6 7.63253e-05
7 *226:7 0.000193182
8 *226:8 0.00011712
9 *226:9 3.07261e-05
10 *226:10 2.63191e-07
11 *226:11 3.07261e-05
12 *226:13 2.10553e-06
13 *226:14 2.8951e-06
14 *226:15 7.89572e-07

*RES
1 *226:15 *810:Q 1.4
2 *226:14 *226:15 0.00642871
3 *226:13 *226:14 0.0171432
4 *226:11 *226:13 1.4
5 *226:10 *992:B 1.4
6 *226:9 *226:11 0.248566
7 *226:8 *226:10 0.0021429
8 *226:7 *226:9 1.4
9 *226:7 *226:8 0.951449
10 *226:6 *226:7 0.621442
11 *226:5 *226:6 1.4
12 *226:4 *226:5 0.621418
13 *226:3 *226:4 1.4
14 *226:2 *226:3 0.0321436
15 *226:1 *226:2 0.0257149
16 *811:SI *226:1 1.4
*END

*D_NET *227 0.000672976

*CONN
*I *993:B I *C 35.278 82.62 *L 0.00625 *D ADDFX1
*I *809:Q O *C 33.869 79.5095 *L 0 *D SDFFRHQX1
*I *810:SI I *C 32.608 81.384 *L 0.00276 *D SDFFRHQX1

*CAP
1 *227:1 2.32508e-06
2 *227:2 1.1367e-05
3 *227:3 9.04197e-06
4 *227:4 8.23094e-05
5 *227:5 8.23094e-05
6 *227:6 7.49191e-05
7 *227:7 0.000169731
8 *227:8 6.58476e-05
9 *227:9 9.92033e-05
10 *227:10 6.58476e-05
11 *227:11 4.39181e-06
12 *227:12 2.06673e-06
13 *227:14 2.84176e-06
14 *227:15 7.75026e-07

*RES
1 *227:15 *810:SI 1.4
2 *227:14 *227:15 0.00642873
3 *227:12 *227:14 0.0171433
4 *227:11 *809:Q 1.4
5 *227:10 *227:12 1.4
6 *227:9 *227:11 0.0364295
7 *227:8 *227:10 0.497155
8 *227:7 *227:9 0.786448
9 *227:7 *227:8 1.4
10 *227:6 *227:7 0.621444
11 *227:5 *227:6 1.4
12 *227:4 *227:5 0.621444
13 *227:3 *227:4 1.4
14 *227:2 *227:3 0.0750018
15 *227:1 *227:2 0.0192862
16 *993:B *227:1 1.4
*END

*D_NET *228 0.000583217

*CONN
*I *994:B I *C 42.277 81.4405 *L 0.00625 *D ADDFX1
*I *809:SI I *C 42.279 80.0895 *L 0.00276 *D SDFFRHQX1
*I *808:Q O *C 39.8255 78.6535 *L 0 *D SDFFRHQX1

*CAP
1 *228:1 4.13347e-06
2 *228:2 6.89773e-05
3 *228:3 6.97523e-05
4 *228:4 0.000131695
5 *228:5 9.30031e-06
6 *228:6 0.000131695
7 *228:7 4.39181e-06
8 *228:8 7.90526e-05
9 *228:10 8.1636e-05
10 *228:11 2.58342e-06

*RES
1 *228:11 *808:Q 1.4
2 *228:10 *228:11 0.0214291
3 *228:8 *228:10 0.65573
4 *228:7 *809:SI 1.4
5 *228:6 *228:8 1.4
6 *228:5 *228:7 0.0364295
7 *228:4 *228:6 0.99431
8 *228:3 *228:5 0.0407153
9 *228:3 *228:4 1.4
10 *228:2 *228:3 0.53787
11 *228:1 *228:2 0.0342866
12 *994:B *228:1 1.4
*END

*D_NET *229 0.000672689

*CONN
*I *995:B I *C 50.7655 81.01 *L 0.00625 *D ADDFX1
*I *807:Q O *C 50.1325 78.5925 *L 0 *D SDFFRHQX1
*I *808:SI I *C 48.2355 79.2335 *L 0.00276 *D SDFFRHQX1

*CAP
1 *229:1 6.71689e-06
2 *229:2 9.04197e-06
3 *229:3 2.32508e-06
4 *229:4 1.64619e-05
5 *229:5 1.64619e-05
6 *229:6 0.000104887
7 *229:7 0.000104887
8 *229:8 6.58476e-05
9 *229:9 0.000164619
10 *229:10 2.22174e-05
11 *229:11 9.87713e-05
12 *229:12 2.79009e-05
13 *229:13 1.08504e-05
14 *229:14 5.68352e-06
15 *229:15 1.34338e-05
16 *229:17 2.58342e-06

*RES
1 *229:17 *808:SI 1.4
2 *229:15 *229:17 0.0214291
3 *229:14 *807:Q 1.4
4 *229:13 *229:15 0.0900022
5 *229:12 *229:14 0.047144
6 *229:11 *229:13 1.4
7 *229:10 *229:12 0.18429
8 *229:9 *229:11 0.745732
9 *229:9 *229:10 1.4
10 *229:8 *229:9 0.497155
11 *229:7 *229:8 1.4
12 *229:6 *229:7 0.870021
13 *229:5 *229:6 1.4
14 *229:4 *229:5 0.124289
15 *229:3 *229:4 1.4
16 *229:2 *229:3 0.0192862
17 *229:1 *229:2 0.0557157
18 *995:B *229:1 1.4
*END

*D_NET *230 0.000873498

*CONN
*I *996:B I *C 63.0155 80.681 *L 0.00625 *D ADDFX1
*I *806:Q O *C 61.57 77.789 *L 0 *D SDFFRHQX1
*I *807:SI I *C 58.5425 79.1725 *L 0.00276 *D SDFFRHQX1

*CAP
1 *230:1 3.10484e-06
2 *230:2 7.50336e-06
3 *230:3 4.39852e-06
4 *230:4 8.18459e-05
5 *230:5 8.18459e-05
6 *230:6 7.50336e-05
7 *230:7 0.000151789
8 *230:8 0.000180061
9 *230:9 7.93686e-05
10 *230:10 0.000180061
11 *230:11 2.61324e-06
12 *230:12 7.24462e-06
13 *230:14 1.29368e-05
14 *230:15 5.6922e-06

*RES
1 *230:15 *807:SI 1.4
2 *230:14 *230:15 0.047142
3 *230:12 *230:14 0.059999
4 *230:11 *806:Q 1.4
5 *230:10 *230:12 1.4
6 *230:9 *230:11 0.0235713
7 *230:8 *230:10 1.36711
8 *230:7 *230:9 0.653563
9 *230:7 *230:8 1.4
10 *230:6 *230:7 0.621418
11 *230:5 *230:6 1.4
12 *230:4 *230:5 0.621415
13 *230:3 *230:4 1.4
14 *230:2 *230:3 0.0364279
15 *230:1 *230:2 0.0257138
16 *996:B *230:1 1.4
*END

*D_NET *231 0.000725975

*CONN
*I *806:SI I *C 69.98 78.369 *L 0.00276 *D SDFFRHQX1
*I *997:B I *C 69.719 81.3155 *L 0.00625 *D ADDFX1
*I *805:Q O *C 66.709 78.3585 *L 0 *D SDFFRHQX1

*CAP
1 *231:1 2.8461e-06
2 *231:2 6.72715e-06
3 *231:3 3.88105e-06
4 *231:4 1.63692e-05
5 *231:5 1.63692e-05
6 *231:6 1.50067e-05
7 *231:7 0.000148515
8 *231:8 0.000134802
9 *231:9 0.000163692
10 *231:10 1.29368e-06
11 *231:11 0.000163692
12 *231:13 1.94052e-05
13 *231:14 2.63911e-05
14 *231:15 6.98588e-06

*RES
1 *231:15 *805:Q 1.4
2 *231:14 *231:15 0.0578561
3 *231:13 *231:14 0.160711
4 *231:11 *231:13 1.4
5 *231:10 *997:B 1.4
6 *231:9 *231:11 1.24283
7 *231:8 *231:10 0.0107141
8 *231:7 *231:9 1.4
9 *231:7 *231:8 1.1057
10 *231:6 *231:7 0.124284
11 *231:5 *231:6 1.4
12 *231:4 *231:5 0.124283
13 *231:3 *231:4 1.4
14 *231:2 *231:3 0.0321423
15 *231:1 *231:2 0.023571
16 *806:SI *231:1 1.4
*END

*D_NET *232 0.000893014

*CONN
*I *998:B I *C 77.931 82.836 *L 0.00625 *D ADDFX1
*I *805:SI I *C 75.119 78.9385 *L 0.00276 *D SDFFRHQX1
*I *804:Q O *C 73.7225 79.872 *L 0 *D SDFFRHQX1

*CAP
1 *232:1 3.36357e-06
2 *232:2 0.000155501
3 *232:3 0.000152137
4 *232:4 0.000147323
5 *232:5 0.000229168
6 *232:6 4.94187e-05
7 *232:7 8.18459e-05
8 *232:8 5.64045e-05
9 *232:9 1.29368e-06
10 *232:10 6.98588e-06
11 *232:11 5.43346e-06
12 *232:13 4.13978e-06

*RES
1 *232:13 *804:Q 1.4
2 *232:11 *232:13 0.0342851
3 *232:10 *805:SI 1.4
4 *232:9 *232:11 0.0107141
5 *232:8 *232:10 0.0578561
6 *232:7 *232:9 1.4
7 *232:6 *232:8 0.409279
8 *232:5 *232:7 0.621415
9 *232:5 *232:6 1.4
10 *232:4 *232:5 1.11855
11 *232:3 *232:4 1.4
12 *232:2 *232:3 1.25998
13 *232:1 *232:2 0.0278567
14 *998:B *232:1 1.4
*END

*D_NET *233 0.00100729

*CONN
*I *999:B I *C 87.345 82.908 *L 0.00625 *D ADDFX1
*I *803:Q O *C 83.338 79.7255 *L 0 *D SDFFRHQX1
*I *804:SI I *C 82.1325 80.452 *L 0.00276 *D SDFFRHQX1

*CAP
1 *233:1 4.78645e-06
2 *233:2 1.09025e-05
3 *233:3 6.11601e-06
4 *233:4 1.61012e-05
5 *233:5 1.61012e-05
6 *233:6 0.000123384
7 *233:7 0.000123384
8 *233:8 0.000241518
9 *233:9 0.000305923
10 *233:10 3.98871e-05
11 *233:11 6.44048e-05
12 *233:12 4.17484e-05
13 *233:13 1.32957e-06
14 *233:14 1.8614e-06
15 *233:15 5.58419e-06
16 *233:17 4.25462e-06

*RES
1 *233:17 *804:SI 1.4
2 *233:15 *233:17 0.0342866
3 *233:14 *803:Q 1.4
4 *233:13 *233:15 0.0107145
5 *233:12 *233:14 0.0150004
6 *233:11 *233:13 1.4
7 *233:10 *233:12 0.321436
8 *233:9 *233:11 0.497132
9 *233:9 *233:10 1.4
10 *233:8 *233:9 1.86425
11 *233:7 *233:8 1.4
12 *233:6 *233:7 0.99431
13 *233:5 *233:6 1.4
14 *233:4 *233:5 0.124283
15 *233:3 *233:4 1.4
16 *233:2 *233:3 0.0492869
17 *233:1 *233:2 0.0385724
18 *999:B *233:1 1.4
*END

*D_NET *234 0.00179111

*CONN
*I *803:SI I *C 91.748 80.3055 *L 0.00276 *D SDFFRHQX1
*I *1000:B I *C 91.2235 77.797 *L 0.00625 *D ADDFX1
*I *802:Q O *C 85.326 72.1 *L 0 *D SDFFRHQX1

*CAP
1 *234:1 1.8614e-06
2 *234:2 8.24332e-06
3 *234:3 6.38193e-06
4 *234:4 3.22024e-05
5 *234:5 4.83036e-05
6 *234:6 0.000126793
7 *234:7 1.61012e-05
8 *234:8 0.000127844
9 *234:9 0.000123113
10 *234:10 1.05121e-06
11 *234:11 0.000123113
12 *234:13 0.000280834
13 *234:14 0.000280834
14 *234:15 0.000303012
15 *234:16 0.000307216
16 *234:17 4.20485e-06

*RES
1 *234:17 *802:Q 1.4
2 *234:16 *234:17 0.0342862
3 *234:15 *234:16 2.47075
4 *234:14 *234:15 1.4
5 *234:13 *234:14 2.36138
6 *234:11 *234:13 1.4
7 *234:10 *1000:B 1.4
8 *234:9 *234:11 0.994308
9 *234:8 *234:10 0.00857154
10 *234:7 *234:9 1.4
11 *234:6 *234:8 1.02431
12 *234:5 *234:7 0.124283
13 *234:5 *234:6 1.4
14 *234:4 *234:5 0.248566
15 *234:3 *234:4 1.4
16 *234:2 *234:3 0.0514298
17 *234:1 *234:2 0.0150004
18 *803:SI *234:1 1.4
*END

*D_NET *235 0.00209164

*CONN
*I *802:SI I *C 93.736 72.68 *L 0.00276 *D SDFFRHQX1
*I *1001:B I *C 90.7915 66.6985 *L 0.00625 *D ADDFX1
*I *801:Q O *C 83.798 63.108 *L 0 *D SDFFRHQX1

*CAP
1 *235:1 4.20485e-06
2 *235:2 0.000326138
3 *235:3 0.000321933
4 *235:4 0.000147807
5 *235:5 0.000517325
6 *235:6 7.62128e-06
7 *235:7 0.000369518
8 *235:8 1.41914e-05
9 *235:9 0.000181071
10 *235:10 6.57007e-06
11 *235:11 0.000188167
12 *235:13 7.09568e-06

*RES
1 *235:13 *801:Q 1.4
2 *235:11 *235:13 0.0578579
3 *235:10 *1001:B 1.4
4 *235:9 *235:11 1.47645
5 *235:8 *235:10 0.0535721
6 *235:7 *235:9 1.4
7 *235:6 *235:8 0.0621437
8 *235:5 *235:7 3.10708
9 *235:5 *235:6 1.4
10 *235:4 *235:5 1.24283
11 *235:3 *235:4 1.4
12 *235:2 *235:3 2.62503
13 *235:1 *235:2 0.0342862
14 *802:SI *235:1 1.4
*END

*D_NET *236 0.00151719

*CONN
*I *801:SI I *C 92.208 63.688 *L 0.00276 *D SDFFRHQX1
*I *1002:B I *C 90.6015 59.5265 *L 0.00625 *D ADDFX1
*I *800:Q O *C 84.3635 57.1995 *L 0 *D SDFFRHQX1

*CAP
1 *236:1 7.09568e-06
2 *236:2 2.41779e-05
3 *236:3 1.70822e-05
4 *236:4 7.39036e-05
5 *236:5 7.39036e-05
6 *236:6 0.000198153
7 *236:7 0.000201833
8 *236:8 0.000325176
9 *236:9 4.99325e-06
10 *236:10 0.000325176
11 *236:11 1.31401e-06
12 *236:12 0.000125883
13 *236:14 0.00013219
14 *236:15 6.30727e-06

*RES
1 *236:15 *800:Q 1.4
2 *236:14 *236:15 0.0514292
3 *236:12 *236:14 1.02644
4 *236:11 *1002:B 1.4
5 *236:10 *236:12 1.4
6 *236:9 *236:11 0.0107144
7 *236:8 *236:10 2.73423
8 *236:7 *236:9 0.0300004
9 *236:7 *236:8 1.4
10 *236:6 *236:7 1.61574
11 *236:5 *236:6 1.4
12 *236:4 *236:5 0.621416
13 *236:3 *236:4 1.4
14 *236:2 *236:3 0.139288
15 *236:1 *236:2 0.0578579
16 *801:SI *236:1 1.4
*END

*D_NET *237 0.00223877

*CONN
*I *800:SI I *C 92.7735 57.7795 *L 0.00276 *D SDFFRHQX1
*I *1003:B I *C 91.913 46.9855 *L 0.00625 *D ADDFX1
*I *799:Q O *C 87.0405 42.4175 *L 0 *D SDFFRHQX1

*CAP
1 *237:1 6.30727e-06
2 *237:2 0.000563216
3 *237:3 0.000556909
4 *237:4 4.61505e-05
5 *237:5 0.000292287
6 *237:6 7.2723e-06
7 *237:7 0.000246136
8 *237:8 1.40251e-05
9 *237:9 0.000244401
10 *237:10 6.75285e-06
11 *237:11 0.000249855
12 *237:13 5.45422e-06

*RES
1 *237:13 *799:Q 1.4
2 *237:11 *237:13 0.0449989
3 *237:10 *1003:B 1.4
4 *237:9 *237:11 2.01638
5 *237:8 *237:10 0.0557129
6 *237:7 *237:9 1.4
7 *237:6 *237:8 0.0599985
8 *237:5 *237:7 1.9886
9 *237:5 *237:6 1.4
10 *237:4 *237:5 0.372863
11 *237:3 *237:4 1.4
12 *237:2 *237:3 4.56641
13 *237:1 *237:2 0.0514292
14 *800:SI *237:1 1.4
*END

*D_NET *238 0.0018782

*CONN
*I *799:SI I *C 95.4505 42.9975 *L 0.00276 *D SDFFRHQX1
*I *1004:B I *C 92.861 37.267 *L 0.00625 *D ADDFX1
*I *798:Q O *C 88.276 32.546 *L 0 *D SDFFRHQX1

*CAP
1 *238:1 5.45422e-06
2 *238:2 0.000303359
3 *238:3 0.000297905
4 *238:4 0.000138452
5 *238:5 0.000384588
6 *238:6 4.41532e-06
7 *238:7 0.000246136
8 *238:8 4.41532e-06
9 *238:9 0.00024518
10 *238:11 0.000246739
11 *238:12 1.55835e-06

*RES
1 *238:12 *798:Q 1.4
2 *238:11 *238:12 0.0128568
3 *238:9 *238:11 2.02281
4 *238:8 *1004:B 1.4
5 *238:7 *238:9 1.4
6 *238:6 *238:8 0.0364277
7 *238:5 *238:7 1.9886
8 *238:5 *238:6 1.4
9 *238:4 *238:5 1.11859
10 *238:3 *238:4 1.4
11 *238:2 *238:3 2.4578
12 *238:1 *238:2 0.0449989
13 *799:SI *238:1 1.4
*END

*D_NET *239 0.00242885

*CONN
*I *798:SI I *C 96.686 33.126 *L 0.00276 *D SDFFRHQX1
*I *1005:A0N I *C 93.8245 31.94 *L 0.00172 *D AOI2BB1X1
*I *1007:B I *C 91.1425 32.7705 *L 0.00172 *D AND2X1
*I *797:Q O *C 82.875 25.1515 *L 0 *D SDFFRHQX1

*CAP
1 *239:1 1.55835e-06
2 *239:2 1.24668e-05
3 *239:3 1.09084e-05
4 *239:4 0.000153835
5 *239:5 0.000292287
6 *239:6 5.06464e-05
7 *239:7 0.000584573
8 *239:8 5.11658e-05
9 *239:9 7.53202e-06
10 *239:10 0.000446122
11 *239:11 5.1945e-07
12 *239:12 1.06487e-05
13 *239:13 0.000398029
14 *239:15 3.1167e-06
15 *239:16 0.000401736
16 *239:18 3.70729e-06

*RES
1 *239:18 *797:Q 1.4
2 *239:16 *239:18 0.0342852
3 *239:15 *1007:B 1.4
4 *239:13 *239:16 3.32778
5 *239:12 *239:15 0.0257137
6 *239:11 *1005:A0N 1.4
7 *239:10 *239:13 1.4
8 *239:9 *239:12 0.0621413
9 *239:8 *239:11 0.00428561
10 *239:7 *239:10 3.60434
11 *239:7 *239:9 1.4
12 *239:6 *239:8 0.417847
13 *239:5 *239:7 1.11859
14 *239:5 *239:6 1.4
15 *239:4 *239:5 1.24288
16 *239:3 *239:4 1.4
17 *239:2 *239:3 0.0899978
18 *239:1 *239:2 0.0128568
19 *798:SI *239:1 1.4
*END

*D_NET *240 0.00055617

*CONN
*I *1005:B0 I *C 93.2445 32.23 *L 0.00276 *D AOI2BB1X1
*I *1004:CI I *C 92.281 36.397 *L 0.00487 *D ADDFX1
*I *1007:Y O *C 92.3025 32.1905 *L 0 *D AND2X1

*CAP
1 *240:1 5.1945e-07
2 *240:2 5.97367e-06
3 *240:3 5.45422e-06
4 *240:4 4.61505e-05
5 *240:5 4.61505e-05
6 *240:6 0.000218429
7 *240:7 0.000215312
8 *240:8 1.06487e-05
9 *240:9 4.41532e-06
10 *240:10 3.1167e-06

*RES
1 *240:10 *1007:Y 1.4
2 *240:9 *1004:CI 1.4
3 *240:8 *240:10 0.0257137
4 *240:7 *240:9 0.0364277
5 *240:6 *240:8 0.0621413
6 *240:6 *240:7 1.73996
7 *240:5 *240:6 1.4
8 *240:4 *240:5 0.372863
9 *240:3 *240:4 1.4
10 *240:2 *240:3 0.0449989
11 *240:1 *240:2 0.00428561
12 *1005:B0 *240:1 1.4
*END

*D_NET *241 0.00058352

*CONN
*I *973:A0 I *C 67.8255 41.7495 *L 0.00271 *D OAI21X1
*I *974:A I *C 67.866 42.154 *L 0.00157 *D NAND2XL
*I *1006:Y O *C 67.875 38.2735 *L 0 *D XNOR2X1

*CAP
1 *241:1 5.53471e-06
2 *241:2 2.69188e-05
3 *241:3 2.13841e-05
4 *241:4 1.39811e-05
5 *241:5 2.79622e-05
6 *241:6 1.39811e-05
7 *241:7 4.17619e-05
8 *241:8 0.000160507
9 *241:9 4.88061e-05
10 *241:10 0.000160507
11 *241:11 7.04417e-06
12 *241:12 1.39811e-05
13 *241:14 1.39811e-05
14 *241:15 7.04417e-06
15 *241:16 1.35852e-05
16 *241:17 6.54102e-06

*RES
1 *241:17 *1006:Y 1.4
2 *241:16 *241:17 0.0557129
3 *241:15 *241:16 0.0599985
4 *241:14 *241:15 1.4
5 *241:12 *241:14 0.124283
6 *241:11 *974:A 1.4
7 *241:10 *241:12 1.4
8 *241:9 *241:11 0.0599985
9 *241:8 *241:10 1.36711
10 *241:7 *241:9 0.355706
11 *241:6 *241:8 1.4
12 *241:5 *241:7 1.4
13 *241:5 *241:6 0.124283
14 *241:4 *241:5 0.124283
15 *241:3 *241:4 1.4
16 *241:2 *241:3 0.182138
17 *241:1 *241:2 0.0471417
18 *973:A0 *241:1 1.4
*END

*D_NET *242 0.00119585

*CONN
*I *1003:CI I *C 91.333 46.1155 *L 0.00487 *D ADDFX1
*I *1004:CO O *C 89.686 36.807 *L 0 *D ADDFX1

*CAP
1 *242:1 6.75285e-06
2 *242:2 1.40251e-05
3 *242:3 7.2723e-06
4 *242:4 4.61505e-05
5 *242:5 4.61505e-05
6 *242:6 0.000497114
7 *242:7 0.000497114
8 *242:8 3.0767e-05
9 *242:9 3.0767e-05
10 *242:10 6.2334e-06
11 *242:11 9.86955e-06
12 *242:12 3.63615e-06

*RES
1 *242:12 *1004:CO 1.4
2 *242:11 *242:12 0.0299993
3 *242:10 *242:11 0.0514273
4 *242:9 *242:10 1.4
5 *242:8 *242:9 0.248575
6 *242:7 *242:8 1.4
7 *242:6 *242:7 4.10133
8 *242:5 *242:6 1.4
9 *242:4 *242:5 0.372863
10 *242:3 *242:4 1.4
11 *242:2 *242:3 0.0599985
12 *242:1 *242:2 0.0557129
13 *1003:CI *242:1 1.4
*END

*D_NET *243 0.00145076

*CONN
*I *1002:CI I *C 90.0215 58.6565 *L 0.00487 *D ADDFX1
*I *1003:CO O *C 88.738 46.5255 *L 0 *D ADDFX1

*CAP
1 *243:1 1.31401e-06
2 *243:2 4.99325e-06
3 *243:3 3.67924e-06
4 *243:4 4.43422e-05
5 *243:5 4.43422e-05
6 *243:6 0.000636707
7 *243:7 0.000636707
8 *243:8 3.0767e-05
9 *243:9 3.0767e-05
10 *243:10 1.0389e-06
11 *243:11 8.57092e-06
12 *243:12 7.53202e-06

*RES
1 *243:12 *1003:CO 1.4
2 *243:11 *243:12 0.0621413
3 *243:10 *243:11 0.00857122
4 *243:9 *243:10 1.4
5 *243:8 *243:9 0.248575
6 *243:7 *243:8 1.4
7 *243:6 *243:7 5.21998
8 *243:5 *243:6 1.4
9 *243:4 *243:5 0.37285
10 *243:3 *243:4 1.4
11 *243:2 *243:3 0.0300004
12 *243:1 *243:2 0.0107144
13 *1002:CI *243:1 1.4
*END

*D_NET *244 0.00102095

*CONN
*I *1001:CI I *C 90.2115 65.8285 *L 0.00487 *D ADDFX1
*I *1002:CO O *C 87.4265 59.0665 *L 0 *D ADDFX1

*CAP
1 *244:1 6.57007e-06
2 *244:2 1.41914e-05
3 *244:3 7.62128e-06
4 *244:4 0.000147807
5 *244:5 0.000147807
6 *244:6 0.000347951
7 *244:7 0.000348477
8 *244:8 5.25606e-07

*RES
1 *244:8 *1002:CO 1.4
2 *244:7 *244:8 0.00428577
3 *244:6 *244:7 2.83718
4 *244:5 *244:6 1.4
5 *244:4 *244:5 1.24283
6 *244:3 *244:4 1.4
7 *244:2 *244:3 0.0621437
8 *244:1 *244:2 0.0535721
9 *1001:CI *244:1 1.4
*END

*D_NET *245 0.00144722

*CONN
*I *1000:CI I *C 90.6435 76.927 *L 0.00487 *D ADDFX1
*I *1001:CO O *C 87.6165 66.2385 *L 0 *D ADDFX1

*CAP
1 *245:1 1.05121e-06
2 *245:2 4.73045e-06
3 *245:3 3.67924e-06
4 *245:4 0.000147807
5 *245:5 0.000147807
6 *245:6 0.000565289
7 *245:7 0.000571071
8 *245:8 5.78166e-06

*RES
1 *245:8 *1001:CO 1.4
2 *245:7 *245:8 0.0471435
3 *245:6 *245:7 4.60935
4 *245:5 *245:6 1.4
5 *245:4 *245:5 1.24283
6 *245:3 *245:4 1.4
7 *245:2 *245:3 0.0300004
8 *245:1 *245:2 0.00857154
9 *1000:CI *245:1 1.4
*END

*D_NET *246 0.000646541

*CONN
*I *999:CI I *C 86.765 82.038 *L 0.00487 *D ADDFX1
*I *1000:CO O *C 88.0485 77.337 *L 0 *D ADDFX1

*CAP
1 *246:1 4.78645e-06
2 *246:2 1.09025e-05
3 *246:3 6.11601e-06
4 *246:4 3.22024e-05
5 *246:5 3.22024e-05
6 *246:6 0.000246136
7 *246:7 0.000246136
8 *246:8 2.95614e-05
9 *246:9 2.95614e-05
10 *246:10 2.62803e-06
11 *246:11 4.46765e-06
12 *246:12 1.83962e-06

*RES
1 *246:12 *1000:CO 1.4
2 *246:11 *246:12 0.0150002
3 *246:10 *246:11 0.0214289
4 *246:9 *246:10 1.4
5 *246:8 *246:9 0.248566
6 *246:7 *246:8 1.4
7 *246:6 *246:7 1.98861
8 *246:5 *246:6 1.4
9 *246:4 *246:5 0.248566
10 *246:3 *246:4 1.4
11 *246:2 *246:3 0.0492869
12 *246:1 *246:2 0.0385724
13 *999:CI *246:1 1.4
*END

*D_NET *247 0.000840307

*CONN
*I *998:CI I *C 77.351 81.966 *L 0.00487 *D ADDFX1
*I *999:CO O *C 84.17 82.448 *L 0 *D ADDFX1

*CAP
1 *247:1 3.36357e-06
2 *247:2 1.63004e-05
3 *247:3 1.29368e-05
4 *247:4 0.000387367
5 *247:5 0.000387367
6 *247:6 1.24979e-05
7 *247:7 1.64866e-05
8 *247:8 3.9887e-06

*RES
1 *247:8 *999:CO 1.4
2 *247:7 *247:8 0.0321436
3 *247:6 *247:7 0.100717
4 *247:5 *247:6 1.4
5 *247:4 *247:5 2.98279
6 *247:3 *247:4 1.4
7 *247:2 *247:3 0.107141
8 *247:1 *247:2 0.0278567
9 *998:CI *247:1 1.4
*END

*D_NET *248 0.000886457

*CONN
*I *997:CI I *C 69.139 80.4455 *L 0.00487 *D ADDFX1
*I *998:CO O *C 74.756 82.376 *L 0 *D ADDFX1

*CAP
1 *248:1 1.29368e-06
2 *248:2 1.4748e-05
3 *248:3 1.34543e-05
4 *248:4 0.000311014
5 *248:5 0.000311014
6 *248:6 0.000113327
7 *248:7 0.000113327
8 *248:9 4.13978e-06
9 *248:10 4.13978e-06

*RES
1 *248:10 *998:CO 1.4
2 *248:9 *248:10 0.0342851
3 *248:8 *248:9 1.4
4 *248:7 *248:8 1.4
5 *248:6 *248:7 0.938555
6 *248:5 *248:6 1.4
7 *248:4 *248:5 2.36138
8 *248:3 *248:4 1.4
9 *248:2 *248:3 0.111427
10 *248:1 *248:2 0.0107141
11 *997:CI *248:1 1.4
*END

*D_NET *249 0.000573733

*CONN
*I *996:CI I *C 62.4355 79.811 *L 0.00487 *D ADDFX1
*I *997:CO O *C 66.544 80.8555 *L 0 *D ADDFX1

*CAP
1 *249:1 3.10484e-06
2 *249:2 2.25101e-05
3 *249:3 1.94052e-05
4 *249:4 0.000229168
5 *249:5 0.000229168
6 *249:6 3.46707e-05
7 *249:7 3.51882e-05
8 *249:8 5.17473e-07

*RES
1 *249:8 *997:CO 1.4
2 *249:7 *249:8 0.00428564
3 *249:6 *249:7 0.287138
4 *249:5 *249:6 1.4
5 *249:4 *249:5 1.73996
6 *249:3 *249:4 1.4
7 *249:2 *249:3 0.160711
8 *249:1 *249:2 0.0257138
9 *996:CI *249:1 1.4
*END

*D_NET *250 0.00110793

*CONN
*I *995:CI I *C 50.1855 80.14 *L 0.00487 *D ADDFX1
*I *996:CO O *C 59.8405 80.221 *L 0 *D ADDFX1

*CAP
1 *250:1 6.71689e-06
2 *250:2 9.04197e-06
3 *250:3 2.32508e-06
4 *250:4 0.000540785
5 *250:5 0.000540785
6 *250:6 1.81115e-06
7 *250:7 4.13978e-06
8 *250:8 2.32863e-06

*RES
1 *250:8 *996:CO 1.4
2 *250:7 *250:8 0.0192854
3 *250:6 *250:7 0.0149997
4 *250:5 *250:6 1.4
5 *250:4 *250:5 4.10138
6 *250:3 *250:4 1.4
7 *250:2 *250:3 0.0192862
8 *250:1 *250:2 0.0557157
9 *995:CI *250:1 1.4
*END

*D_NET *251 0.000753918

*CONN
*I *994:CI I *C 41.697 80.5705 *L 0.00487 *D ADDFX1
*I *995:CO O *C 47.5905 80.55 *L 0 *D ADDFX1

*CAP
1 *251:1 4.13347e-06
2 *251:2 1.42088e-05
3 *251:3 1.00753e-05
4 *251:4 0.0003457
5 *251:5 0.0003457
6 *251:6 1.11087e-05
7 *251:7 1.70506e-05
8 *251:8 5.94186e-06

*RES
1 *251:8 *995:CO 1.4
2 *251:7 *251:8 0.0492869
3 *251:6 *251:7 0.0921451
4 *251:5 *251:6 1.4
5 *251:4 *251:5 2.61006
6 *251:3 *251:4 1.4
7 *251:2 *251:3 0.0835735
8 *251:1 *251:2 0.0342866
9 *994:CI *251:1 1.4
*END

*D_NET *252 0.000587893

*CONN
*I *993:CI I *C 34.698 81.75 *L 0.00487 *D ADDFX1
*I *994:CO O *C 39.102 80.9805 *L 0 *D ADDFX1

*CAP
1 *252:1 2.32508e-06
2 *252:2 8.26694e-06
3 *252:3 5.94186e-06
4 *252:4 0.000246928
5 *252:5 0.000246928
6 *252:6 3.38428e-05
7 *252:7 3.87513e-05
8 *252:8 4.9085e-06

*RES
1 *252:8 *994:CO 1.4
2 *252:7 *252:8 0.0407153
3 *252:6 *252:7 0.280721
4 *252:5 *252:6 1.4
5 *252:4 *252:5 1.86433
6 *252:3 *252:4 1.4
7 *252:2 *252:3 0.0492869
8 *252:1 *252:2 0.0192862
9 *993:CI *252:1 1.4
*END

*D_NET *253 0.000958092

*CONN
*I *992:CI I *C 24.2075 82.116 *L 0.00487 *D ADDFX1
*I *993:CO O *C 32.103 82.16 *L 0 *D ADDFX1

*CAP
1 *253:1 2.63191e-07
2 *253:2 2.07921e-05
3 *253:3 2.05289e-05
4 *253:4 0.000437328
5 *253:5 0.000437328
6 *253:6 1.78256e-05
7 *253:7 2.09257e-05
8 *253:8 3.1001e-06

*RES
1 *253:8 *993:CO 1.4
2 *253:7 *253:8 0.0257149
3 *253:6 *253:7 0.147861
4 *253:5 *253:6 1.4
5 *253:4 *253:5 3.35576
6 *253:3 *253:4 1.4
7 *253:2 *253:3 0.167146
8 *253:1 *253:2 0.0021429
9 *992:CI *253:1 1.4
*END

*D_NET *254 0.000708167

*CONN
*I *991:CI I *C 18.9315 78.501 *L 0.00487 *D ADDFX1
*I *992:CO O *C 21.6125 82.526 *L 0 *D ADDFX1

*CAP
1 *254:1 3.42148e-06
2 *254:2 0.000214237
3 *254:3 0.000210816
4 *254:4 0.000138267
5 *254:5 0.000138267
6 *254:6 1.05276e-06
7 *254:7 1.57914e-06
8 *254:8 5.26381e-07

*RES
1 *254:8 *992:CO 1.4
2 *254:7 *254:8 0.0042858
3 *254:6 *254:7 0.00857161
4 *254:5 *254:6 1.4
5 *254:4 *254:5 1.11855
6 *254:3 *254:4 1.4
7 *254:2 *254:3 1.71646
8 *254:1 *254:2 0.0278577
9 *991:CI *254:1 1.4
*END

*D_NET *255 0.00121337

*CONN
*I *990:CI I *C 18.1525 69.8865 *L 0.00487 *D ADDFX1
*I *991:CO O *C 16.3365 78.911 *L 0 *D ADDFX1

*CAP
1 *255:1 1.60604e-06
2 *255:2 9.10088e-06
3 *255:3 7.49484e-06
4 *255:4 4.66575e-05
5 *255:5 4.66575e-05
6 *255:6 0.000496151
7 *255:7 0.000496151
8 *255:8 4.60891e-05
9 *255:9 4.60891e-05
10 *255:10 6.05339e-06
11 *255:11 8.68529e-06
12 *255:12 2.63191e-06

*RES
1 *255:12 *991:CO 1.4
2 *255:11 *255:12 0.021429
3 *255:10 *255:11 0.0492868
4 *255:9 *255:10 1.4
5 *255:8 *255:9 0.372849
6 *255:7 *255:8 1.4
7 *255:6 *255:7 3.97709
8 *255:5 *255:6 1.4
9 *255:4 *255:5 0.372849
10 *255:3 *255:4 1.4
11 *255:2 *255:3 0.0599991
12 *255:1 *255:2 0.0128569
13 *990:CI *255:1 1.4
*END

*D_NET *256 0.0013251

*CONN
*I *989:CI I *C 18.886 61.6895 *L 0.00487 *D ADDFX1
*I *990:CO O *C 15.5575 70.2965 *L 0 *D ADDFX1

*CAP
1 *256:1 5.8888e-06
2 *256:2 9.36855e-06
3 *256:3 3.47975e-06
4 *256:4 0.00018663
5 *256:5 0.00018663
6 *256:6 0.000464145
7 *256:7 0.000466554
8 *256:8 2.40906e-06

*RES
1 *256:8 *990:CO 1.4
2 *256:7 *256:8 0.0192854
3 *256:6 *256:7 3.71566
4 *256:5 *256:6 1.4
5 *256:4 *256:5 1.4914
6 *256:3 *256:4 1.4
7 *256:2 *256:3 0.0278567
8 *256:1 *256:2 0.0471421
9 *989:CI *256:1 1.4
*END

*D_NET *257 0.00122322

*CONN
*I *988:CI I *C 19.0815 53.4685 *L 0.00487 *D ADDFX1
*I *989:CO O *C 16.291 62.0995 *L 0 *D ADDFX1

*CAP
1 *257:1 4.55044e-06
2 *257:2 0.000410075
3 *257:3 0.000405524
4 *257:4 0.000139973
5 *257:5 0.000139973
6 *257:6 5.6479e-05
7 *257:7 6.15648e-05
8 *257:8 5.08579e-06

*RES
1 *257:8 *989:CO 1.4
2 *257:7 *257:8 0.0407136
3 *257:6 *257:7 0.452136
4 *257:5 *257:6 1.4
5 *257:4 *257:5 1.11855
6 *257:3 *257:4 1.4
7 *257:2 *257:3 3.24638
8 *257:1 *257:2 0.036428
9 *988:CI *257:1 1.4
*END

*D_NET *258 0.0018046

*CONN
*I *987:CI I *C 18.765 41.322 *L 0.00487 *D ADDFX1
*I *988:CO O *C 16.4865 53.8785 *L 0 *D ADDFX1

*CAP
1 *258:1 3.11681e-06
2 *258:2 4.80508e-05
3 *258:3 4.4934e-05
4 *258:4 0.00013329
5 *258:5 0.00013329
6 *258:6 0.000695503
7 *258:7 0.000695503
8 *258:8 1.55525e-05
9 *258:9 1.55525e-05
10 *258:10 4.55044e-06
11 *258:11 9.9039e-06
12 *258:12 5.35346e-06

*RES
1 *258:12 *988:CO 1.4
2 *258:11 *258:12 0.0428565
3 *258:10 *258:11 0.036428
4 *258:9 *258:10 1.4
5 *258:8 *258:9 0.124283
6 *258:7 *258:8 1.4
7 *258:6 *258:7 5.71701
8 *258:5 *258:6 1.4
9 *258:4 *258:5 1.11855
10 *258:3 *258:4 1.4
11 *258:2 *258:3 0.370705
12 *258:1 *258:2 0.0257137
13 *987:CI *258:1 1.4
*END

*D_NET *259 0.00105667

*CONN
*I *986:CI I *C 18.155 33.91 *L 0.00487 *D ADDFX1
*I *987:CO O *C 16.17 41.732 *L 0 *D ADDFX1

*CAP
1 *259:1 1.5584e-06
2 *259:2 8.05175e-06
3 *259:3 6.49335e-06
4 *259:4 5.92401e-05
5 *259:5 5.92401e-05
6 *259:6 0.000406743
7 *259:7 0.000406743
8 *259:8 4.44301e-05
9 *259:9 4.44301e-05
10 *259:10 5.97388e-06
11 *259:11 9.86989e-06
12 *259:12 3.89601e-06

*RES
1 *259:12 *987:CO 1.4
2 *259:11 *259:12 0.0321421
3 *259:10 *259:11 0.0492845
4 *259:9 *259:10 1.4
5 *259:8 *259:9 0.37285
6 *259:7 *259:8 1.4
7 *259:6 *259:7 3.35563
8 *259:5 *259:6 1.4
9 *259:4 *259:5 0.497133
10 *259:3 *259:4 1.4
11 *259:2 *259:3 0.0535701
12 *259:1 *259:2 0.0128568
13 *986:CI *259:1 1.4
*END

*D_NET *260 0.0014631

*CONN
*I *985:CI I *C 18.289 23.881 *L 0.00487 *D ADDFX1
*I *986:CO O *C 15.56 34.32 *L 0 *D ADDFX1

*CAP
1 *260:1 6.35955e-06
2 *260:2 0.00056371
3 *260:3 0.000557351
4 *260:4 0.0001481
5 *260:5 0.0001481
6 *260:6 1.74022e-05
7 *260:7 1.97398e-05
8 *260:8 2.33761e-06

*RES
1 *260:8 *986:CO 1.4
2 *260:7 *260:8 0.0192852
3 *260:6 *260:7 0.143568
4 *260:5 *260:6 1.4
5 *260:4 *260:5 1.24283
6 *260:3 *260:4 1.4
7 *260:2 *260:3 4.61775
8 *260:1 *260:2 0.0535707
9 *985:CI *260:1 1.4
*END

*D_NET *261 0.00144366

*CONN
*I *984:CI I *C 21.927 16.706 *L 0.00487 *D ADDFX1
*I *985:CO O *C 15.694 24.291 *L 0 *D ADDFX1

*CAP
1 *261:1 1.52629e-06
2 *261:2 0.000383608
3 *261:3 0.000382082
4 *261:4 0.000328811
5 *261:5 0.000328811
6 *261:6 3.81573e-06
7 *261:7 9.41213e-06
8 *261:8 5.5964e-06

*RES
1 *261:8 *985:CO 1.4
2 *261:7 *261:8 0.0471422
3 *261:6 *261:7 0.0321424
4 *261:5 *261:6 1.4
5 *261:4 *261:5 2.61006
6 *261:3 *261:4 1.4
7 *261:2 *261:3 3.21853
8 *261:1 *261:2 0.012857
9 *984:CI *261:1 1.4
*END

*D_NET *262 0.00180316

*CONN
*I *983:CI I *C 33.0805 15.01 *L 0.00487 *D ADDFX1
*I *984:CO O *C 19.332 17.116 *L 0 *D ADDFX1

*CAP
1 *262:1 6.59701e-06
2 *262:2 0.000125079
3 *262:3 0.000118482
4 *262:4 0.000767089
5 *262:5 0.000767089
6 *262:6 7.12269e-06
7 *262:7 9.41213e-06
8 *262:8 2.28944e-06

*RES
1 *262:8 *984:CO 1.4
2 *262:7 *262:8 0.0192854
3 *262:6 *262:7 0.0599991
4 *262:5 *262:6 1.4
5 *262:4 *262:5 5.96571
6 *262:3 *262:4 1.4
7 *262:2 *262:3 0.962125
8 *262:1 *262:2 0.0535705
9 *983:CI *262:1 1.4
*END

*D_NET *263 0.00150081

*CONN
*I *982:CI I *C 41.849 17.4365 *L 0.00487 *D ADDFX1
*I *983:CO O *C 30.4855 15.42 *L 0 *D ADDFX1

*CAP
1 *263:1 2.90268e-06
2 *263:2 0.000104233
3 *263:3 0.00010133
4 *263:4 0.000635356
5 *263:5 0.000635356
6 *263:6 5.01372e-06
7 *263:7 1.08191e-05
8 *263:8 5.80536e-06

*RES
1 *263:8 *983:CO 1.4
2 *263:7 *263:8 0.047142
3 *263:6 *263:7 0.0407135
4 *263:5 *263:6 1.4
5 *263:4 *263:5 4.84702
6 *263:3 *263:4 1.4
7 *263:2 *263:3 0.822842
8 *263:1 *263:2 0.023571
9 *982:CI *263:1 1.4
*END

*D_NET *264 0.00136704

*CONN
*I *981:CI I *C 44.4515 25.1345 *L 0.00487 *D ADDFX1
*I *982:CO O *C 39.254 17.8465 *L 0 *D ADDFX1

*CAP
1 *264:1 3.43044e-06
2 *264:2 6.06925e-06
3 *264:3 2.6388e-06
4 *264:4 0.000293241
5 *264:5 0.000293241
6 *264:6 0.000382099
7 *264:7 0.00038421
8 *264:8 2.11104e-06

*RES
1 *264:8 *982:CO 1.4
2 *264:7 *264:8 0.0171425
3 *264:6 *264:7 3.1028
4 *264:5 *264:6 1.4
5 *264:4 *264:5 2.23709
6 *264:3 *264:4 1.4
7 *264:2 *264:3 0.0214282
8 *264:1 *264:2 0.0278566
9 *981:CI *264:1 1.4
*END

*D_NET *265 0.0012961

*CONN
*I *980:CI I *C 44.2305 35.957 *L 0.00487 *D ADDFX1
*I *981:CO O *C 41.8565 25.5445 *L 0 *D ADDFX1

*CAP
1 *265:1 2.51409e-07
2 *265:2 7.29087e-06
3 *265:3 7.03946e-06
4 *265:4 5.51748e-05
5 *265:5 5.51748e-05
6 *265:6 0.000511446
7 *265:7 0.000511446
8 *265:8 6.51647e-05
9 *265:9 6.51647e-05
10 *265:10 6.33313e-06
11 *265:11 8.97193e-06
12 *265:12 2.6388e-06

*RES
1 *265:12 *981:CO 1.4
2 *265:11 *265:12 0.0214282
3 *265:10 *265:11 0.0514276
4 *265:9 *265:10 1.4
5 *265:8 *265:9 0.497131
6 *265:7 *265:8 1.4
7 *265:6 *265:7 4.3501
8 *265:5 *265:6 1.4
9 *265:4 *265:5 0.497131
10 *265:3 *265:4 1.4
11 *265:2 *265:3 0.0600015
12 *265:1 *265:2 0.00214291
13 *980:CI *265:1 1.4
*END

*D_NET *266 0.00102032

*CONN
*I *979:CI I *C 43.398 43.122 *L 0.00487 *D ADDFX1
*I *980:CO O *C 41.6355 36.367 *L 0 *D ADDFX1

*CAP
1 *266:1 2.26268e-06
2 *266:2 0.000384153
3 *266:3 0.000381891
4 *266:4 8.27623e-05
5 *266:5 8.27623e-05
6 *266:6 4.22368e-05
7 *266:7 4.32424e-05
8 *266:8 1.00564e-06

*RES
1 *266:8 *980:CO 1.4
2 *266:7 *266:8 0.00857164
3 *266:6 *266:7 0.360009
4 *266:5 *266:6 1.4
5 *266:4 *266:5 0.745696
6 *266:3 *266:4 1.4
7 *266:2 *266:3 3.25508
8 *266:1 *266:2 0.0192862
9 *979:CI *266:1 1.4
*END

*D_NET *267 0.00157198

*CONN
*I *978:CI I *C 43.9585 56.1655 *L 0.00487 *D ADDFX1
*I *979:CO O *C 40.803 43.532 *L 0 *D ADDFX1

*CAP
1 *267:1 1.20516e-06
2 *267:2 3.61549e-06
3 *267:3 2.41032e-06
4 *267:4 0.000154686
5 *267:5 0.000154686
6 *267:6 0.000624672
7 *267:7 0.000627689
8 *267:8 3.01691e-06

*RES
1 *267:8 *979:CO 1.4
2 *267:7 *267:8 0.0257149
3 *267:6 *267:7 5.39362
4 *267:5 *267:6 1.4
5 *267:4 *267:5 1.36711
6 *267:3 *267:4 1.4
7 *267:2 *267:3 0.021428
8 *267:1 *267:2 0.010714
9 *978:CI *267:1 1.4
*END

*D_NET *268 0.000905586

*CONN
*I *977:CI I *C 48.6395 58.5715 *L 0.00487 *D ADDFX1
*I *978:CO O *C 41.3635 56.5755 *L 0 *D ADDFX1

*CAP
1 *268:1 3.13342e-06
2 *268:2 9.35206e-05
3 *268:3 9.03871e-05
4 *268:4 0.000351559
5 *268:5 0.000351559
6 *268:6 5.78478e-06
7 *268:7 7.71304e-06
8 *268:8 1.92826e-06

*RES
1 *268:8 *978:CO 1.4
2 *268:7 *268:8 0.0171424
3 *268:6 *268:7 0.0514273
4 *268:5 *268:6 1.4
5 *268:4 *268:5 3.10707
6 *268:3 *268:4 1.4
7 *268:2 *268:3 0.803552
8 *268:1 *268:2 0.0278565
9 *977:CI *268:1 1.4
*END

*D_NET *269 0.00205952

*CONN
*I *976:CI I *C 64.5565 56.852 *L 0.00487 *D ADDFX1
*I *977:CO O *C 46.0445 58.9815 *L 0 *D ADDFX1

*CAP
1 *269:1 1.4254e-06
2 *269:2 7.83972e-06
3 *269:3 6.41432e-06
4 *269:4 0.00092189
5 *269:5 0.00092189
6 *269:6 9.61719e-05
7 *269:7 9.61719e-05
8 *269:9 3.85652e-06
9 *269:10 3.85652e-06

*RES
1 *269:10 *977:CO 1.4
2 *269:9 *269:10 0.0342849
3 *269:8 *269:9 1.4
4 *269:7 *269:8 1.4
5 *269:6 *269:7 0.854979
6 *269:5 *269:6 1.4
7 *269:4 *269:5 7.95435
8 *269:3 *269:4 1.4
9 *269:2 *269:3 0.0578569
10 *269:1 *269:2 0.0128571
11 *976:CI *269:1 1.4
*END

*D_NET *270 0.00125784

*CONN
*I *975:CI I *C 66.9125 49.315 *L 0.00487 *D ADDFX1
*I *976:CO O *C 61.9615 57.262 *L 0 *D ADDFX1

*CAP
1 *270:1 3.52209e-06
2 *270:2 1.00631e-05
3 *270:3 6.54102e-06
4 *270:4 0.000237679
5 *270:5 0.000237679
6 *270:6 0.000379037
7 *270:7 0.000381176
8 *270:8 2.13811e-06

*RES
1 *270:8 *976:CO 1.4
2 *270:7 *270:8 0.0192856
3 *270:6 *270:7 3.34925
4 *270:5 *270:6 1.4
5 *270:4 *270:5 2.11281
6 *270:3 *270:4 1.4
7 *270:2 *270:3 0.0557129
8 *270:1 *270:2 0.0299993
9 *975:CI *270:1 1.4
*END

*D_NET *271 0.00123253

*CONN
*I *974:B I *C 68.446 42.154 *L 0.00167 *D NAND2XL
*I *973:A1 I *C 68.1155 42.0395 *L 0.00274 *D OAI21X1
*I *975:CO O *C 64.3175 49.725 *L 0 *D ADDFX1

*CAP
1 *271:1 7.04417e-06
2 *271:2 9.05679e-06
3 *271:3 2.01262e-06
4 *271:4 2.79622e-05
5 *271:5 0.000195736
6 *271:6 7.79891e-06
7 *271:7 0.000167773
8 *271:8 1.33336e-05
9 *271:9 0.000379379
10 *271:10 5.53471e-06
11 *271:11 0.000379379
12 *271:13 1.39811e-05
13 *271:14 1.39811e-05
14 *271:15 5.03155e-07
15 *271:16 4.77998e-06
16 *271:17 4.27682e-06

*RES
1 *271:17 *975:CO 1.4
2 *271:16 *271:17 0.0364277
3 *271:15 *271:16 0.00428561
4 *271:14 *271:15 1.4
5 *271:13 *271:14 0.124283
6 *271:11 *271:13 1.4
7 *271:10 *973:A1 1.4
8 *271:9 *271:11 3.23135
9 *271:8 *271:10 0.0471417
10 *271:7 *271:9 1.4
11 *271:6 *271:8 0.0664269
12 *271:5 *271:7 1.49139
13 *271:5 *271:6 1.4
14 *271:4 *271:5 0.248565
15 *271:3 *271:4 1.4
16 *271:2 *271:3 0.0171424
17 *271:1 *271:2 0.0599985
18 *974:B *271:1 1.4
*END

*D_NET *272 4.27682e-05

*CONN
*I *973:B0 I *C 68.6955 41.7495 *L 0.0028 *D OAI21X1
*I *974:Y O *C 68.446 41.574 *L 0 *D NAND2XL

*CAP
1 *272:1 5.53471e-06
2 *272:2 1.43399e-05
3 *272:3 1.58494e-05
4 *272:4 7.04417e-06

*RES
1 *272:4 *974:Y 1.4
2 *272:3 *272:4 0.0599985
3 *272:2 *272:3 0.0749982
4 *272:1 *272:2 0.0471417
5 *973:B0 *272:1 1.4
*END

*D_NET *273 0.00343936

*CONN
*I *797:SI I *C 91.285 25.7315 *L 0.00276 *D SDFFRHQX1
*I *759:A I *C 70.941 21.094 *L 0.00273 *D INVX1
*I *966:B0 I *C 70.744 18.1125 *L 0.00167 *D OA21X1
*I *528:B I *C 71.1395 19.785 *L 0.00167 *D NAND2XL
*I *796:Q O *C 66.3855 17.8335 *L 0 *D SDFFRHQX1

*CAP
1 *273:1 3.70729e-06
2 *273:2 6.71946e-06
3 *273:3 3.01217e-06
4 *273:4 1.3633e-05
5 *273:5 1.3633e-05
6 *273:6 0.000107511
7 *273:7 0.000107511
8 *273:8 0.000945026
9 *273:9 0.00095883
10 *273:10 0.000109564
11 *273:11 1.38036e-05
12 *273:12 0.000111268
13 *273:13 0.000169459
14 *273:14 1.70433e-06
15 *273:15 0.000254676
16 *273:17 2.76072e-05
17 *273:18 0.000105181
18 *273:19 2.76072e-05
19 *273:20 6.33037e-06
20 *273:21 1.36346e-05
21 *273:22 3.89561e-06
22 *273:24 0.000207054
23 *273:25 6.57384e-06
24 *273:26 0.000207054
25 *273:27 2.67823e-06
26 *273:28 5.84342e-06
27 *273:30 5.84342e-06

*RES
1 *273:30 *796:Q 1.4
2 *273:28 *273:30 0.0514273
3 *273:27 *528:B 1.4
4 *273:26 *273:28 1.4
5 *273:25 *273:27 0.0235709
6 *273:24 *273:26 1.86426
7 *273:22 *273:25 0.0342849
8 *273:21 *273:24 1.4
9 *273:20 *966:B0 1.4
10 *273:19 *273:22 1.4
11 *273:18 *273:21 0.119997
12 *273:18 *273:20 0.0557129
13 *273:17 *273:19 0.248567
14 *273:15 *273:18 0.749982
15 *273:15 *273:17 1.4
16 *273:14 *759:A 1.4
17 *273:13 *273:15 1.49139
18 *273:12 *273:14 0.0149996
19 *273:11 *273:13 1.4
20 *273:10 *273:12 0.964262
21 *273:9 *273:11 0.124284
22 *273:9 *273:10 1.4
23 *273:8 *273:9 8.57553
24 *273:7 *273:8 1.4
25 *273:6 *273:7 0.99427
26 *273:5 *273:6 1.4
27 *273:4 *273:5 0.124283
28 *273:3 *273:4 1.4
29 *273:2 *273:3 0.0278567
30 *273:1 *273:2 0.0342852
31 *797:SI *273:1 1.4
*END

*D_NET *274 0.00325536

*CONN
*I *533:SI I *C 84.9775 11.1425 *L 0.00276 *D SDFFRHQX1
*I *754:B I *C 71.0405 12.6075 *L 0.00167 *D NAND2XL
*I *965:B0 I *C 70.964 13.93 *L 0.0028 *D OAI21X1
*I *967:A I *C 70.428 15.1405 *L 0.00259 *D NOR3X1
*I *527:A I *C 70.4595 14.306 *L 0.00157 *D NAND2XL
*I *796:D I *C 73.3455 18.1235 *L 0.00276 *D SDFFRHQX1
*I *532:Q O *C 66.4125 10.131 *L 0 *D SDFFRHQX1

*CAP
1 *274:1 6.25605e-06
2 *274:2 6.25605e-06
3 *274:4 1.43657e-05
4 *274:5 1.43657e-05
5 *274:6 0.000672366
6 *274:7 0.000672366
7 *274:8 5.62429e-05
8 *274:9 5.62429e-05
9 *274:11 7.08514e-05
10 *274:12 8.78947e-05
11 *274:13 6.57384e-06
12 *274:14 2.06954e-05
13 *274:15 2.92171e-06
14 *274:17 0.000124232
15 *274:19 9.66251e-05
16 *274:20 0.00019325
17 *274:21 5.64864e-05
18 *274:22 4.06604e-05
19 *274:23 0.000165643
20 *274:24 5.64864e-05
21 *274:25 4.33387e-05
22 *274:26 9.0086e-06
23 *274:27 0.000211824
24 *274:28 1.38036e-05
25 *274:29 5.11299e-06
26 *274:30 6.57384e-06
27 *274:31 0.000211824
28 *274:32 1.38036e-05
29 *274:35 1.38036e-05
30 *274:36 0.000127094
31 *274:37 1.38036e-05
32 *274:38 0.000132938
33 *274:39 6.08689e-06
34 *274:40 5.84342e-06
35 *274:41 1.29042e-05
36 *274:43 6.81732e-06

*RES
1 *274:43 *532:Q 1.4
2 *274:41 *274:43 0.0599985
3 *274:40 *796:D 1.4
4 *274:39 *274:41 0.0535701
5 *274:38 *274:40 0.0514273
6 *274:37 *274:39 1.4
7 *274:36 *274:38 1.11854
8 *274:35 *274:37 0.124284
9 *274:32 *274:36 1.4
10 *274:31 *274:35 1.4
11 *274:30 *527:A 1.4
12 *274:29 *967:A 1.4
13 *274:28 *274:32 0.124284
14 *274:27 *274:31 1.86424
15 *274:26 *274:30 0.0578557
16 *274:25 *274:29 0.0449989
17 *274:24 *274:28 1.4
18 *274:23 *274:27 1.4
19 *274:22 *274:26 0.021428
20 *274:22 *274:25 0.33642
21 *274:21 *274:24 0.497131
22 *274:20 *274:23 1.4914
23 *274:20 *274:22 1.4
24 *274:19 *274:21 1.4
25 *274:17 *274:20 0.248567
26 *274:17 *274:19 0.869986
27 *274:15 *965:B0 1.4
28 *274:14 *274:17 1.4
29 *274:13 *754:B 1.4
30 *274:12 *274:15 0.0257137
31 *274:12 *274:14 0.182138
32 *274:11 *274:13 0.0578557
33 *274:11 *274:12 0.5657
34 *274:10 *274:11 1.4
35 *274:9 *274:10 1.4
36 *274:8 *274:9 0.494988
37 *274:7 *274:8 1.4
38 *274:6 *274:7 6.08988
39 *274:5 *274:6 1.4
40 *274:4 *274:5 0.132855
41 *274:3 *274:4 1.4
42 *274:2 *274:3 1.4
43 *274:1 *274:2 0.0578562
44 *533:SI *274:1 1.4
*END

*D_NET *275 0.0942687

*CONN
*I *633:RN I *C 63.6275 61.873 *L 0.00439 *D SDFFRHQX1
*I *569:RN I *C 63.4255 61.818 *L 0.00439 *D SDFFRHQX1
*I *826:RN I *C 63.1685 59.672 *L 0.00439 *D SDFFRHQX1
*I *858:RN I *C 63.1095 59.4145 *L 0.00439 *D SDFFRHQX1
*I *601:RN I *C 63.6685 64.833 *L 0.00439 *D SDFFRHQX1
*I *792:RN I *C 62.7285 60.639 *L 0.00439 *D SDFFRHQX1
*I *827:RN I *C 65.844 54.699 *L 0.00439 *D SDFFRHQX1
*I *794:RN I *C 65.966 42.0355 *L 0.00439 *D SDFFRHQX1
*I *570:RN I *C 66.7575 58.6555 *L 0.00439 *D SDFFRHQX1
*I *793:RN I *C 66.316 57.4155 *L 0.00439 *D SDFFRHQX1
*I *602:RN I *C 68.0935 59.5075 *L 0.00439 *D SDFFRHQX1
*I *859:RN I *C 65.35 48.259 *L 0.00439 *D SDFFRHQX1
*I *571:RN I *C 66.154 40.609 *L 0.00439 *D SDFFRHQX1
*I *634:RN I *C 66.6145 58.4725 *L 0.00439 *D SDFFRHQX1
*I *828:RN I *C 66.569 40.833 *L 0.00439 *D SDFFRHQX1
*I *860:RN I *C 65.829 39.208 *L 0.00439 *D SDFFRHQX1
*I *603:RN I *C 66.973 39.092 *L 0.00439 *D SDFFRHQX1
*I *635:RN I *C 65.482 38.7925 *L 0.00439 *D SDFFRHQX1
*I *572:RN I *C 70.061 35.9245 *L 0.00439 *D SDFFRHQX1
*I *604:RN I *C 70.134 34.596 *L 0.00439 *D SDFFRHQX1
*I *829:RN I *C 71.756 36.3115 *L 0.00439 *D SDFFRHQX1
*I *795:RN I *C 67.045 17.115 *L 0.00439 *D SDFFRHQX1
*I *529:RN I *C 66.507 27.8335 *L 0.00439 *D SDFFRHQX1
*I *530:RN I *C 67.7765 26.9465 *L 0.00439 *D SDFFRHQX1
*I *796:RN I *C 68.7055 18.4135 *L 0.00439 *D SDFFRHQX1
*I *531:RN I *C 68.815 11.395 *L 0.00439 *D SDFFRHQX1
*I *533:RN I *C 78.8875 11.1425 *L 0.00439 *D SDFFRHQX1
*I *532:RN I *C 68.7325 10.711 *L 0.00439 *D SDFFRHQX1
*I *534:RN I *C 87.9265 11.889 *L 0.00439 *D SDFFRHQX1
*I *535:RN I *C 89.459 11.9215 *L 0.00439 *D SDFFRHQX1
*I *536:RN I *C 93.5885 11.42 *L 0.00439 *D SDFFRHQX1
*I *540:RN I *C 94.055 22.5065 *L 0.00439 *D SDFFRHQX1
*I *537:RN I *C 96.392 11.5585 *L 0.00439 *D SDFFRHQX1
*I *797:RN I *C 85.195 25.7315 *L 0.00439 *D SDFFRHQX1
*I *538:RN I *C 97.056 12.0085 *L 0.00439 *D SDFFRHQX1
*I *541:RN I *C 92.988 30.763 *L 0.00439 *D SDFFRHQX1
*I *539:RN I *C 97.206 13.281 *L 0.00439 *D SDFFRHQX1
*I *763:RN I *C 97.1045 29.704 *L 0.00439 *D SDFFRHQX1
*I *573:RN I *C 99.687 33.348 *L 0.00439 *D SDFFRHQX1
*I *764:RN I *C 92.3765 33.8025 *L 0.00439 *D SDFFRHQX1
*I *798:RN I *C 90.596 33.126 *L 0.00439 *D SDFFRHQX1
*I *830:RN I *C 91.004 35.217 *L 0.00439 *D SDFFRHQX1
*I *799:RN I *C 89.3605 42.9975 *L 0.00439 *D SDFFRHQX1
*I *605:RN I *C 87.0525 35.145 *L 0.00439 *D SDFFRHQX1
*I *831:RN I *C 91.055 44.0045 *L 0.00439 *D SDFFRHQX1
*I *606:RN I *C 92.0275 43.2275 *L 0.00439 *D SDFFRHQX1
*I *765:RN I *C 92.1695 42.7505 *L 0.00439 *D SDFFRHQX1
*I *607:RN I *C 92.2065 57.295 *L 0.00439 *D SDFFRHQX1
*I *542:RN I *C 92.19 41.0275 *L 0.00439 *D SDFFRHQX1
*I *766:RN I *C 90.44 56.97 *L 0.00439 *D SDFFRHQX1
*I *575:RN I *C 99.1385 56.9225 *L 0.00439 *D SDFFRHQX1
*I *574:RN I *C 99.773 41.8955 *L 0.00439 *D SDFFRHQX1
*I *832:RN I *C 89.356 57.6345 *L 0.00439 *D SDFFRHQX1
*I *544:RN I *C 89.495 63.795 *L 0.00439 *D SDFFRHQX1
*I *543:RN I *C 89.2165 56.9575 *L 0.00439 *D SDFFRHQX1
*I *833:RN I *C 89.6625 64.2425 *L 0.00439 *D SDFFRHQX1
*I *801:RN I *C 86.118 63.688 *L 0.00439 *D SDFFRHQX1
*I *800:RN I *C 86.6835 57.7795 *L 0.00439 *D SDFFRHQX1
*I *767:RN I *C 90.5525 64.1235 *L 0.00439 *D SDFFRHQX1
*I *608:RN I *C 94.2015 64.791 *L 0.00439 *D SDFFRHQX1
*I *802:RN I *C 87.646 72.68 *L 0.00439 *D SDFFRHQX1
*I *576:RN I *C 100.198 65.5335 *L 0.00439 *D SDFFRHQX1
*I *803:RN I *C 85.658 80.3055 *L 0.00439 *D SDFFRHQX1
*I *836:RN I *C 78.4175 84.674 *L 0.00439 *D SDFFRHQX1
*I *804:RN I *C 76.0425 80.452 *L 0.00439 *D SDFFRHQX1
*I *837:RN I *C 69.207 82.1485 *L 0.00439 *D SDFFRHQX1
*I *805:RN I *C 69.029 78.9385 *L 0.00439 *D SDFFRHQX1
*I *549:RN I *C 64.138 81.6065 *L 0.00439 *D SDFFRHQX1
*I *547:RN I *C 83.4 89.667 *L 0.00439 *D SDFFRHQX1
*I *772:RN I *C 63.642 82.936 *L 0.00439 *D SDFFRHQX1
*I *838:RN I *C 63.6075 80.782 *L 0.00439 *D SDFFRHQX1
*I *770:RN I *C 84.263 88.3755 *L 0.00439 *D SDFFRHQX1
*I *611:RN I *C 88.763 94.0575 *L 0.00439 *D SDFFRHQX1
*I *548:RN I *C 69.854 84.419 *L 0.00439 *D SDFFRHQX1
*I *806:RN I *C 63.89 78.369 *L 0.00439 *D SDFFRHQX1
*I *769:RN I *C 93.4165 86.9725 *L 0.00439 *D SDFFRHQX1
*I *579:RN I *C 89.256 96.2955 *L 0.00439 *D SDFFRHQX1
*I *834:RN I *C 92.1755 79.039 *L 0.00439 *D SDFFRHQX1
*I *835:RN I *C 90.199 84.887 *L 0.00439 *D SDFFRHQX1
*I *771:RN I *C 70.2985 85.183 *L 0.00439 *D SDFFRHQX1
*I *546:RN I *C 94.912 88.806 *L 0.00439 *D SDFFRHQX1
*I *768:RN I *C 94.0165 76.9475 *L 0.00439 *D SDFFRHQX1
*I *610:RN I *C 97.309 92.465 *L 0.00439 *D SDFFRHQX1
*I *545:RN I *C 95.009 77.7455 *L 0.00439 *D SDFFRHQX1
*I *580:RN I *C 70.421 95.6695 *L 0.00439 *D SDFFRHQX1
*I *612:RN I *C 70.186 93.1955 *L 0.00439 *D SDFFRHQX1
*I *609:RN I *C 98.2815 85.532 *L 0.00439 *D SDFFRHQX1
*I *577:RN I *C 101.065 85.712 *L 0.00439 *D SDFFRHQX1
*I *578:RN I *C 99.465 93.9465 *L 0.00439 *D SDFFRHQX1
*I *581:RN I *C 63.358 95.157 *L 0.00439 *D SDFFRHQX1
*I *613:RN I *C 63.36 91.5665 *L 0.00439 *D SDFFRHQX1
*I *582:RN I *C 52.763 95.0815 *L 0.00439 *D SDFFRHQX1
*I *614:RN I *C 52.5105 91.03 *L 0.00439 *D SDFFRHQX1
*I *550:RN I *C 53.9205 83.1815 *L 0.00439 *D SDFFRHQX1
*I *773:RN I *C 52.445 83.462 *L 0.00439 *D SDFFRHQX1
*I *807:RN I *C 52.4525 79.1725 *L 0.00439 *D SDFFRHQX1
*I *839:RN I *C 51.076 81.2615 *L 0.00439 *D SDFFRHQX1
*I *551:RN I *C 42.68 83.025 *L 0.00439 *D SDFFRHQX1
*I *600:RN I *C 42.7625 65.8905 *L 0.00439 *D SDFFRHQX1
*I *808:RN I *C 42.1455 79.2335 *L 0.00439 *D SDFFRHQX1
*I *840:RN I *C 42.0205 81.3155 *L 0.00439 *D SDFFRHQX1
*I *809:RN I *C 36.189 80.0895 *L 0.00439 *D SDFFRHQX1
*I *774:RN I *C 42.458 83.521 *L 0.00439 *D SDFFRHQX1
*I *632:RN I *C 42.9845 61.8395 *L 0.00439 *D SDFFRHQX1
*I *568:RN I *C 42.6055 61.665 *L 0.00439 *D SDFFRHQX1
*I *775:RN I *C 35.7285 85.1955 *L 0.00439 *D SDFFRHQX1
*I *615:RN I *C 42.3715 90.811 *L 0.00439 *D SDFFRHQX1
*I *841:RN I *C 35.535 83.005 *L 0.00439 *D SDFFRHQX1
*I *791:RN I *C 43.6995 60.609 *L 0.00439 *D SDFFRHQX1
*I *810:RN I *C 26.518 81.384 *L 0.00439 *D SDFFRHQX1
*I *583:RN I *C 42.463 94.7935 *L 0.00439 *D SDFFRHQX1
*I *842:RN I *C 22.3475 85.2865 *L 0.00439 *D SDFFRHQX1
*I *552:RN I *C 36.091 85.4655 *L 0.00439 *D SDFFRHQX1
*I *825:RN I *C 44.129 59.7875 *L 0.00439 *D SDFFRHQX1
*I *857:RN I *C 44.07 60.0815 *L 0.00439 *D SDFFRHQX1
*I *811:RN I *C 20.0955 79.389 *L 0.00439 *D SDFFRHQX1
*I *584:RN I *C 34.437 95.5095 *L 0.00439 *D SDFFRHQX1
*I *616:RN I *C 34.831 92.441 *L 0.00439 *D SDFFRHQX1
*I *856:RN I *C 41.179 57.0585 *L 0.00439 *D SDFFRHQX1
*I *790:RN I *C 40.9855 55.8235 *L 0.00439 *D SDFFRHQX1
*I *776:RN I *C 23.3755 88.03 *L 0.00439 *D SDFFRHQX1
*I *777:RN I *C 13.5235 87.197 *L 0.00439 *D SDFFRHQX1
*I *567:RN I *C 40.027 57.288 *L 0.00439 *D SDFFRHQX1
*I *553:RN I *C 22.225 89.9945 *L 0.00439 *D SDFFRHQX1
*I *585:RN I *C 15.47 96.441 *L 0.00439 *D SDFFRHQX1
*I *631:RN I *C 40.173 57.807 *L 0.00439 *D SDFFRHQX1
*I *554:RN I *C 11.81 89.1055 *L 0.00439 *D SDFFRHQX1
*I *844:RN I *C 15.7035 72.5255 *L 0.00439 *D SDFFRHQX1
*I *824:RN I *C 41.3085 56.3815 *L 0.00439 *D SDFFRHQX1
*I *617:RN I *C 15.8845 94.0695 *L 0.00439 *D SDFFRHQX1
*I *843:RN I *C 16.0355 83.3895 *L 0.00439 *D SDFFRHQX1
*I *778:RN I *C 11.592 79.172 *L 0.00439 *D SDFFRHQX1
*I *618:RN I *C 8.769 92.3285 *L 0.00439 *D SDFFRHQX1
*I *555:RN I *C 11.247 77.863 *L 0.00439 *D SDFFRHQX1
*I *812:RN I *C 19.2385 70.494 *L 0.00439 *D SDFFRHQX1
*I *813:RN I *C 20.1095 63.821 *L 0.00439 *D SDFFRHQX1
*I *845:RN I *C 17.0595 63.886 *L 0.00439 *D SDFFRHQX1
*I *599:RN I *C 38.6675 59.2655 *L 0.00439 *D SDFFRHQX1
*I *619:RN I *C 7.5305 83.868 *L 0.00439 *D SDFFRHQX1
*I *586:RN I *C 6.674 93.647 *L 0.00439 *D SDFFRHQX1
*I *556:RN I *C 15.8475 64.765 *L 0.00439 *D SDFFRHQX1
*I *814:RN I *C 20.128 57.745 *L 0.00439 *D SDFFRHQX1
*I *779:RN I *C 14.2385 65.1775 *L 0.00439 *D SDFFRHQX1
*I *587:RN I *C 5.075 84.1505 *L 0.00439 *D SDFFRHQX1
*I *620:RN I *C 11.0575 65.032 *L 0.00439 *D SDFFRHQX1
*I *762:Y O *C 5.884 97.875 *L 0 *D INVXL
*I *557:RN I *C 17.489 57.9325 *L 0.00439 *D SDFFRHQX1
*I *846:RN I *C 17.4995 57.063 *L 0.00439 *D SDFFRHQX1
*I *588:RN I *C 6.146 65.661 *L 0.00439 *D SDFFRHQX1
*I *558:RN I *C 17.0825 44.3875 *L 0.00439 *D SDFFRHQX1
*I *780:RN I *C 15.7925 57.194 *L 0.00439 *D SDFFRHQX1
*I *621:RN I *C 13.2255 56.8585 *L 0.00439 *D SDFFRHQX1
*I *589:RN I *C 6.953 56.576 *L 0.00439 *D SDFFRHQX1
*I *847:RN I *C 17.202 43.6435 *L 0.00439 *D SDFFRHQX1
*I *815:RN I *C 19.3605 43.764 *L 0.00439 *D SDFFRHQX1
*I *781:RN I *C 15.88 44.167 *L 0.00439 *D SDFFRHQX1
*I *622:RN I *C 13.7775 43.8725 *L 0.00439 *D SDFFRHQX1
*I *782:RN I *C 15.285 36.79 *L 0.00439 *D SDFFRHQX1
*I *559:RN I *C 15.886 37.2375 *L 0.00439 *D SDFFRHQX1
*I *848:RN I *C 16.316 36.6605 *L 0.00439 *D SDFFRHQX1
*I *623:RN I *C 12.752 36.287 *L 0.00439 *D SDFFRHQX1
*I *816:RN I *C 18.4295 37.1885 *L 0.00439 *D SDFFRHQX1
*I *817:RN I *C 17.438 28.481 *L 0.00439 *D SDFFRHQX1
*I *783:RN I *C 13.9375 26.1225 *L 0.00439 *D SDFFRHQX1
*I *591:RN I *C 7.431 36.114 *L 0.00439 *D SDFFRHQX1
*I *818:RN I *C 18.7555 19.598 *L 0.00439 *D SDFFRHQX1
*I *850:RN I *C 16.6285 16.7285 *L 0.00439 *D SDFFRHQX1
*I *560:RN I *C 13.241 26.7705 *L 0.00439 *D SDFFRHQX1
*I *562:RN I *C 19.578 11.293 *L 0.00439 *D SDFFRHQX1
*I *849:RN I *C 15.017 24.8705 *L 0.00439 *D SDFFRHQX1
*I *590:RN I *C 7.685 44.2295 *L 0.00439 *D SDFFRHQX1
*I *784:RN I *C 14.234 15.0255 *L 0.00439 *D SDFFRHQX1
*I *819:RN I *C 29.599 16.7125 *L 0.00439 *D SDFFRHQX1
*I *785:RN I *C 20.3295 11.891 *L 0.00439 *D SDFFRHQX1
*I *561:RN I *C 12.241 14.0305 *L 0.00439 *D SDFFRHQX1
*I *625:RN I *C 10.06 11.3205 *L 0.00439 *D SDFFRHQX1
*I *626:RN I *C 16.337 9.213 *L 0.00439 *D SDFFRHQX1
*I *851:RN I *C 32.6125 14.277 *L 0.00439 *D SDFFRHQX1
*I *592:RN I *C 5.675 17.7635 *L 0.00439 *D SDFFRHQX1
*I *593:RN I *C 7.622 8.588 *L 0.00439 *D SDFFRHQX1
*I *594:RN I *C 15.7015 6.617 *L 0.00439 *D SDFFRHQX1
*I *786:RN I *C 39.6995 12.726 *L 0.00439 *D SDFFRHQX1
*I *624:RN I *C 10.011 19.962 *L 0.00439 *D SDFFRHQX1
*I *852:RN I *C 40.98 14.722 *L 0.00439 *D SDFFRHQX1
*I *563:RN I *C 41.7685 11.4965 *L 0.00439 *D SDFFRHQX1
*I *820:RN I *C 40.089 17.105 *L 0.00439 *D SDFFRHQX1
*I *627:RN I *C 42.622 9.754 *L 0.00439 *D SDFFRHQX1
*I *595:RN I *C 43.007 6.593 *L 0.00439 *D SDFFRHQX1
*I *596:RN I *C 47.0885 7.7765 *L 0.00439 *D SDFFRHQX1
*I *564:RN I *C 45.6715 18.7535 *L 0.00439 *D SDFFRHQX1
*I *628:RN I *C 46.1665 15.3085 *L 0.00439 *D SDFFRHQX1
*I *787:RN I *C 44.6885 18.3915 *L 0.00439 *D SDFFRHQX1
*I *853:RN I *C 43.614 22.504 *L 0.00439 *D SDFFRHQX1
*I *821:RN I *C 43.1635 24.433 *L 0.00439 *D SDFFRHQX1
*I *597:RN I *C 44.9045 26.4625 *L 0.00439 *D SDFFRHQX1
*I *565:RN I *C 44.2005 34.1645 *L 0.00439 *D SDFFRHQX1
*I *788:RN I *C 44.111 33.826 *L 0.00439 *D SDFFRHQX1
*I *822:RN I *C 43.071 35.172 *L 0.00439 *D SDFFRHQX1
*I *629:RN I *C 44.3965 34.295 *L 0.00439 *D SDFFRHQX1
*I *789:RN I *C 42.151 40.7865 *L 0.00439 *D SDFFRHQX1
*I *854:RN I *C 43.139 35.0015 *L 0.00439 *D SDFFRHQX1
*I *855:RN I *C 41.7655 41.157 *L 0.00439 *D SDFFRHQX1
*I *823:RN I *C 41.943 41.108 *L 0.00439 *D SDFFRHQX1
*I *630:RN I *C 41.6805 41.052 *L 0.00439 *D SDFFRHQX1
*I *566:RN I *C 41.6955 40.6715 *L 0.00439 *D SDFFRHQX1
*I *598:RN I *C 40.173 40.236 *L 0.00439 *D SDFFRHQX1

*CAP
1 *275:1 1.18784e-06
2 *275:2 3.08838e-06
3 *275:3 1.90054e-06
4 *275:4 1.45776e-05
5 *275:5 2.91552e-05
6 *275:6 4.51378e-06
7 *275:7 1.45776e-05
8 *275:8 7.36459e-06
9 *275:9 0.000192905
10 *275:10 2.85081e-06
11 *275:11 0.000137789
12 *275:12 0.000106668
13 *275:14 2.91552e-05
14 *275:15 1.45776e-05
15 *275:16 6.81818e-05
16 *275:17 2.91552e-05
17 *275:18 1.45776e-05
18 *275:19 4.51378e-06
19 *275:20 6.03421e-05
20 *275:21 9.50269e-07
21 *275:22 5.46405e-06
22 *275:24 1.66297e-06
23 *275:25 4.65632e-05
24 *275:26 1.66297e-06
25 *275:27 8.07729e-06
26 *275:29 0.000145776
27 *275:30 7.12702e-07
28 *275:31 2.61324e-06
29 *275:32 0.000145776
30 *275:35 8.26734e-05
31 *275:36 2.75578e-05
32 *275:37 0.000177463
33 *275:38 4.37329e-05
34 *275:39 1.45776e-05
35 *275:40 0.000444293
36 *275:41 0.000102043
37 *275:42 1.45776e-05
38 *275:43 6.17675e-06
39 *275:44 0.000630241
40 *275:45 5.83105e-05
41 *275:46 1.71048e-05
42 *275:47 6.65189e-06
43 *275:49 2.79622e-05
44 *275:50 0.000379882
45 *275:51 2.35192e-05
46 *275:52 3.15965e-05
47 *275:53 9.02756e-06
48 *275:54 2.79622e-05
49 *275:55 5.03155e-07
50 *275:56 0.000137865
51 *275:57 2.77954e-05
52 *275:58 4.03864e-06
53 *275:59 1.0453e-05
54 *275:60 2.37567e-06
55 *275:61 1.25789e-06
56 *275:63 1.39811e-05
57 *275:64 8.7549e-05
58 *275:65 4.27621e-06
59 *275:67 1.45776e-05
60 *275:69 3.52209e-06
61 *275:70 2.79622e-05
62 *275:71 1.39811e-05
63 *275:72 2.9183e-05
64 *275:74 1.45776e-05
65 *275:75 2.2642e-06
66 *275:76 1.39811e-05
67 *275:77 6.7926e-06
68 *275:78 1.39811e-05
69 *275:79 4.19433e-05
70 *275:80 0.000175098
71 *275:81 1.90054e-06
72 *275:83 4.5284e-06
73 *275:84 1.23273e-05
74 *275:85 4.27682e-06
75 *275:86 4.19433e-05
76 *275:87 2.79622e-05
77 *275:88 0.000160507
78 *275:89 4.75135e-06
79 *275:90 5.28313e-06
80 *275:91 5.53471e-06
81 *275:92 1.15726e-05
82 *275:93 4.27682e-06
83 *275:94 2.79622e-05
84 *275:95 5.59244e-05
85 *275:96 2.85081e-06
86 *275:97 7.54733e-07
87 *275:99 7.29575e-06
88 *275:100 1.08178e-05
89 *275:101 4.02524e-06
90 *275:102 0.000195736
91 *275:106 6.54102e-06
92 *275:107 8.30206e-06
93 *275:108 0.000223698
94 *275:109 0.000393971
95 *275:111 4.27682e-06
96 *275:112 8.38867e-05
97 *275:113 6.69197e-05
98 *275:114 0.000437745
99 *275:116 3.94977e-05
100 *275:117 2.13841e-05
101 *275:118 5.1825e-05
102 *275:119 2.79622e-05
103 *275:120 0.00049684
104 *275:121 4.0504e-05
105 *275:122 1.25789e-06
106 *275:123 5.03155e-06
107 *275:124 2.79622e-05
108 *275:125 2.79622e-05
109 *275:126 0.000474005
110 *275:127 1.00631e-06
111 *275:130 7.04417e-06
112 *275:131 2.79622e-05
113 *275:132 6.90179e-05
114 *275:133 2.53215e-05
115 *275:135 9.55995e-06
116 *275:136 6.03786e-06
117 *275:137 6.90179e-05
118 *275:138 4.38256e-06
119 *275:139 2.51578e-06
120 *275:140 9.0568e-06
121 *275:141 4.23648e-05
122 *275:142 0.000296553
123 *275:145 3.01893e-06
124 *275:146 4.82082e-05
125 *275:147 0.000296553
126 *275:149 5.84342e-06
127 *275:150 1.38036e-05
128 *275:152 0.000496503
129 *275:153 0.000905321
130 *275:154 2.92171e-06
131 *275:155 0.000490787
132 *275:156 1.43657e-05
133 *275:157 3.91996e-05
134 *275:158 0.000259027
135 *275:159 2.01584e-05
136 *275:160 2.06218e-05
137 *275:161 2.92171e-06
138 *275:162 4.01735e-05
139 *275:163 0.000218128
140 *275:164 2.15486e-05
141 *275:165 2.43291e-05
142 *275:166 6.25605e-06
143 *275:168 6.81732e-06
144 *275:169 0.00013633
145 *275:170 1.62194e-06
146 *275:171 2.17803e-05
147 *275:172 4.1707e-06
148 *275:175 0.000512069
149 *275:176 0.000109064
150 *275:177 4.63411e-06
151 *275:178 2.31706e-07
152 *275:180 0.000660824
153 *275:181 4.86582e-06
154 *275:182 3.01217e-06
155 *275:184 0.000146438
156 *275:185 2.31706e-06
157 *275:186 2.84998e-05
158 *275:188 0.000436255
159 *275:190 2.2012e-05
160 *275:191 1.62194e-06
161 *275:192 1.3633e-05
162 *275:193 0.000422622
163 *275:194 2.7266e-05
164 *275:196 0.000193395
165 *275:197 3.01217e-06
166 *275:198 4.08989e-05
167 *275:199 0.000193395
168 *275:200 6.71946e-06
169 *275:201 1.3633e-05
170 *275:202 1.15853e-06
171 *275:203 0.000184602
172 *275:204 3.70729e-06
173 *275:205 5.76947e-05
174 *275:206 3.47558e-06
175 *275:207 0.000107685
176 *275:208 7.69175e-05
177 *275:210 5.76947e-05
178 *275:211 2.31706e-06
179 *275:212 1.5064e-05
180 *275:213 6.90868e-05
181 *275:216 1.5064e-05
182 *275:217 0.000137914
183 *275:218 4.1707e-06
184 *275:219 3.0767e-05
185 *275:220 6.64896e-05
186 *275:221 2.33752e-06
187 *275:222 4.1707e-06
188 *275:223 0.000169219
189 *275:224 3.0767e-05
190 *275:227 0.000138452
191 *275:228 1.0389e-06
192 *275:229 0.000123068
193 *275:230 0.000188301
194 *275:231 6.2334e-06
195 *275:232 9.14232e-05
196 *275:233 0.000107685
197 *275:234 0.000191937
198 *275:235 5.1945e-06
199 *275:236 9.19426e-05
200 *275:237 5.61006e-05
201 *275:238 1.53835e-05
202 *275:239 3.63615e-06
203 *275:241 5.1945e-07
204 *275:242 5.76589e-05
205 *275:243 0.000165705
206 *275:246 1.55835e-06
207 *275:247 0.000210897
208 *275:249 4.51921e-05
209 *275:250 3.0767e-05
210 *275:251 4.61505e-05
211 *275:252 3.0767e-05
212 *275:253 0.000169219
213 *275:254 1.0389e-06
214 *275:255 0.000358161
215 *275:256 0.000123068
216 *275:257 5.71395e-06
217 *275:258 0.000412184
218 *275:259 4.98672e-05
219 *275:260 4.67505e-06
220 *275:261 4.85686e-05
221 *275:262 5.45422e-06
222 *275:263 5.45422e-05
223 *275:265 7.69175e-05
224 *275:267 4.67505e-06
225 *275:268 0.000138452
226 *275:270 6.1534e-05
227 *275:271 3.63615e-06
228 *275:272 0.000671721
229 *275:273 1.09084e-05
230 *275:274 0.00069607
231 *275:275 6.38923e-05
232 *275:276 7.2723e-06
233 *275:277 6.20215e-05
234 *275:278 8.86843e-05
235 *275:279 2.33752e-06
236 *275:280 7.37619e-05
237 *275:282 7.88409e-06
238 *275:283 0.000354737
239 *275:284 0.000118246
240 *275:286 4.93477e-06
241 *275:287 8.93454e-05
242 *275:288 6.83287e-06
243 *275:289 0.000354737
244 *275:290 4.49393e-05
245 *275:291 2.95614e-05
246 *275:293 0.000415355
247 *275:294 5.14255e-05
248 *275:296 1.83962e-05
249 *275:297 5.04581e-05
250 *275:298 7.62128e-05
251 *275:299 0.000415355
252 *275:300 5.97367e-06
253 *275:301 2.39151e-05
254 *275:302 5.51886e-06
255 *275:303 7.62128e-05
256 *275:304 5.1945e-07
257 *275:306 5.51886e-06
258 *275:308 1.47807e-05
259 *275:309 7.2723e-06
260 *275:311 1.47807e-05
261 *275:312 6.75285e-06
262 *275:313 3.67924e-06
263 *275:315 2.10242e-05
264 *275:316 0.000316415
265 *275:317 5.78166e-06
266 *275:318 0.00031221
267 *275:319 1.47807e-05
268 *275:321 0.000192149
269 *275:322 8.9353e-06
270 *275:323 0.000147807
271 *275:324 5.91229e-05
272 *275:325 0.000192149
273 *275:326 1.57682e-06
274 *275:327 4.70417e-05
275 *275:328 0.000133026
276 *275:329 4.43422e-05
277 *275:330 3.10107e-05
278 *275:331 1.83962e-06
279 *275:332 1.47807e-05
280 *275:334 4.91441e-05
281 *275:335 3.94204e-06
282 *275:336 2.47035e-05
283 *275:337 3.57412e-05
284 *275:338 8.9353e-06
285 *275:339 0.00047252
286 *275:340 2.10242e-06
287 *275:341 1.02493e-05
288 *275:342 6.46495e-05
289 *275:343 4.73045e-06
290 *275:344 7.09568e-06
291 *275:345 0.00047252
292 *275:347 6.30727e-06
293 *275:348 3.62668e-05
294 *275:349 3.67924e-06
295 *275:352 1.47807e-05
296 *275:354 0.000177369
297 *275:356 0.000103465
298 *275:357 0.000487764
299 *275:358 0.000397479
300 *275:359 8.86843e-05
301 *275:360 0.000310395
302 *275:361 1.31401e-06
303 *275:362 0.000397479
304 *275:363 1.83962e-06
305 *275:364 3.78436e-05
306 *275:365 6.30727e-06
307 *275:366 1.61012e-05
308 *275:367 6.04447e-06
309 *275:368 3.81064e-05
310 *275:369 4.99325e-06
311 *275:370 0.000289821
312 *275:371 4.20485e-06
313 *275:372 2.62803e-07
314 *275:374 6.38193e-06
315 *275:375 0.00027372
316 *275:378 8.24332e-06
317 *275:379 1.5423e-05
318 *275:380 1.8614e-06
319 *275:381 1.5423e-05
320 *275:383 0.00012881
321 *275:384 0.000259629
322 *275:385 0.000223368
323 *275:386 0.00052368
324 *275:387 0.000294366
325 *275:388 1.29368e-06
326 *275:389 0.00039286
327 *275:390 6.96694e-05
328 *275:391 1.32957e-06
329 *275:392 5.43346e-06
330 *275:393 0.000166109
331 *275:394 0.000225417
332 *275:396 4.13978e-06
333 *275:397 0.000122124
334 *275:398 8.6418e-05
335 *275:399 0.000225417
336 *275:401 3.3377e-05
337 *275:402 2.06989e-06
338 *275:403 6.98588e-06
339 *275:404 9.2538e-05
340 *275:405 6.54767e-05
341 *275:408 9.2538e-05
342 *275:409 0.000278276
343 *275:410 4.83036e-05
344 *275:411 9.00403e-05
345 *275:412 0.000245538
346 *275:413 9.66072e-05
347 *275:414 9.00403e-05
348 *275:415 6.15793e-05
349 *275:416 3.27383e-05
350 *275:417 0.000305923
351 *275:418 0.000103175
352 *275:419 9.82151e-05
353 *275:420 6.64953e-05
354 *275:421 0.000111515
355 *275:422 0.000370327
356 *275:423 3.45688e-05
357 *275:424 0.000104504
358 *275:425 9.82151e-05
359 *275:426 4.91599e-06
360 *275:427 8.02083e-06
361 *275:428 0.000227429
362 *275:429 0.000112708
363 *275:430 0.000336913
364 *275:431 3.56324e-05
365 *275:432 1.32957e-06
366 *275:433 5.95094e-06
367 *275:435 7.76209e-07
368 *275:436 2.32863e-06
369 *275:437 0.00012083
370 *275:438 4.6269e-05
371 *275:439 0.000469072
372 *275:440 1.06365e-06
373 *275:442 1.16431e-05
374 *275:445 1.63692e-05
375 *275:446 0.000138807
376 *275:447 0.000125777
377 *275:448 6.38193e-06
378 *275:451 5.6922e-06
379 *275:452 1.63692e-05
380 *275:453 0.000144911
381 *275:454 9.2538e-05
382 *275:455 1.61012e-05
383 *275:457 3.59644e-05
384 *275:459 3.88105e-06
385 *275:460 0.000144911
386 *275:461 9.66072e-05
387 *275:462 1.61012e-05
388 *275:463 0.000456152
389 *275:464 6.72715e-06
390 *275:465 6.38193e-06
391 *275:466 6.44048e-05
392 *275:467 3.22024e-05
393 *275:468 6.91376e-06
394 *275:469 0.000420188
395 *275:470 3.27383e-05
396 *275:471 2.8461e-06
397 *275:472 0.000113811
398 *275:473 0.000323085
399 *275:474 1.2232e-05
400 *275:475 1.11684e-05
401 *275:476 1.63692e-05
402 *275:477 3.27383e-05
403 *275:479 0.000101579
404 *275:480 5.8501e-06
405 *275:481 0.00043635
406 *275:482 1.94117e-05
407 *275:483 4.25462e-06
408 *275:484 1.63692e-05
409 *275:485 3.62231e-06
410 *275:486 8.0506e-05
411 *275:488 5.31827e-06
412 *275:489 0.000107947
413 *275:490 7.17967e-06
414 *275:492 0.000120054
415 *275:493 4.91599e-06
416 *275:494 0.000209316
417 *275:496 0.000103465
418 *275:498 0.000120054
419 *275:499 1.29368e-06
420 *275:500 0.000177113
421 *275:501 4.25462e-06
422 *275:502 0.000147807
423 *275:503 0.000294645
424 *275:505 4.83036e-05
425 *275:506 0.00015423
426 *275:507 7.7115e-06
427 *275:508 4.43422e-05
428 *275:509 2.36523e-06
429 *275:510 1.63692e-05
430 *275:511 0.000278276
431 *275:512 0.00015423
432 *275:513 0.000190394
433 *275:514 3.45688e-06
434 *275:515 3.94204e-05
435 *275:516 7.09568e-06
436 *275:517 0.000128075
437 *275:518 1.50067e-05
438 *275:519 0.000178428
439 *275:520 3.6962e-05
440 *275:521 0.000112708
441 *275:523 4.126e-05
442 *275:524 4.73045e-06
443 *275:525 1.08669e-05
444 *275:526 0.000129368
445 *275:527 1.50067e-05
446 *275:528 0.000161012
447 *275:529 3.03142e-05
448 *275:530 7.97741e-07
449 *275:531 0.000112708
450 *275:532 1.83962e-06
451 *275:534 4.91599e-06
452 *275:535 7.24462e-06
453 *275:536 9.82151e-05
454 *275:537 0.000161012
455 *275:538 6.11601e-06
456 *275:540 0.000114875
457 *275:544 0.000703875
458 *275:545 1.46253e-05
459 *275:547 0.00012232
460 *275:548 5.6922e-06
461 *275:549 0.00060566
462 *275:550 1.46253e-05
463 *275:551 7.44558e-06
464 *275:552 0.000191724
465 *275:553 9.57325e-06
466 *275:556 2.58736e-07
467 *275:557 0.000186031
468 *275:558 0.000225877
469 *275:560 2.58736e-07
470 *275:561 6.72715e-06
471 *275:562 0.000627177
472 *275:565 6.46841e-06
473 *275:566 0.000501172
474 *275:568 6.54767e-05
475 *275:569 9.00403e-05
476 *275:570 6.54767e-05
477 *275:571 1.63692e-05
478 *275:572 4.91599e-06
479 *275:573 8.21704e-05
480 *275:574 1.13844e-05
481 *275:575 0.000221737
482 *275:576 0.000526734
483 *275:577 6.46841e-06
484 *275:578 0.00011462
485 *275:579 0.000117984
486 *275:580 4.39181e-06
487 *275:581 0.000460933
488 *275:583 5.17473e-06
489 *275:584 5.6922e-06
490 *275:585 1.00753e-05
491 *275:586 0.000179806
492 *275:589 5.68352e-06
493 *275:590 8.9903e-05
494 *275:591 8.9903e-05
495 *275:593 1.64619e-05
496 *275:594 1.64619e-05
497 *275:595 1.64619e-05
498 *275:596 4.93857e-05
499 *275:597 1.80839e-05
500 *275:598 0.00066567
501 *275:599 4.93857e-05
502 *275:600 1.49838e-05
503 *275:601 8.0086e-06
504 *275:602 0.000857773
505 *275:603 1.91173e-05
506 *275:604 0.0003457
507 *275:605 1.64619e-05
508 *275:606 4.9085e-06
509 *275:607 4.82065e-07
510 *275:608 0.000205601
511 *275:609 2.17007e-05
512 *275:610 8.83529e-05
513 *275:611 0.000329238
514 *275:612 1.64619e-05
515 *275:615 1.40624e-05
516 *275:616 1.39799e-05
517 *275:617 2.58342e-06
518 *275:618 9.42948e-05
519 *275:619 2.50592e-05
520 *275:620 7.49191e-06
521 *275:621 1.40624e-05
522 *275:622 1.40624e-05
523 *275:624 5.94186e-06
524 *275:625 9.42948e-05
525 *275:626 8.78362e-06
526 *275:627 3.61549e-06
527 *275:628 1.40624e-05
528 *275:630 6.48438e-05
529 *275:631 4.39181e-06
530 *275:633 1.29171e-06
531 *275:634 7.37559e-05
532 *275:635 1.92826e-06
533 *275:636 1.64619e-05
534 *275:638 0.000376662
535 *275:640 3.85652e-06
536 *275:641 6.62839e-05
537 *275:642 7.71304e-06
538 *275:643 3.29238e-05
539 *275:644 0.000376662
540 *275:646 2.81247e-05
541 *275:647 5.78478e-06
542 *275:648 0.000198923
543 *275:649 0.00052678
544 *275:651 5.62495e-05
545 *275:653 0.000214165
546 *275:654 8.57695e-05
547 *275:655 0.000727049
548 *275:656 0.000206157
549 *275:657 2.81247e-05
550 *275:658 6.98994e-06
551 *275:659 1.08504e-05
552 *275:660 4.39181e-06
553 *275:661 8.62862e-05
554 *275:662 2.06673e-06
555 *275:663 0.000293546
556 *275:664 0.000205898
557 *275:665 5.94186e-06
558 *275:666 1.39799e-05
559 *275:667 9.6413e-06
560 *275:668 1.64619e-05
561 *275:670 5.16684e-07
562 *275:671 2.84176e-06
563 *275:672 0.000207394
564 *275:673 7.68152e-05
565 *275:674 6.71689e-06
566 *275:675 0.000444471
567 *275:677 3.25394e-05
568 *275:678 2.65136e-06
569 *275:679 1.64619e-05
570 *275:681 7.75026e-07
571 *275:682 0.000311881
572 *275:683 0.00012212
573 *275:684 1.03337e-06
574 *275:685 0.000444471
575 *275:686 1.40624e-05
576 *275:687 0.000111839
577 *275:689 3.1001e-06
578 *275:691 9.79069e-05
579 *275:692 6.57977e-06
580 *275:693 0.00012212
581 *275:695 0.000164822
582 *275:696 1.40624e-05
583 *275:698 9.32795e-05
584 *275:699 3.87513e-06
585 *275:700 0.000476254
586 *275:702 4.60891e-05
587 *275:703 4.49515e-05
588 *275:704 0.000119871
589 *275:705 4.57962e-06
590 *275:706 4.57962e-06
591 *275:707 0.000154686
592 *275:708 7.75026e-07
593 *275:709 1.5363e-05
594 *275:710 0.000460891
595 *275:711 6.14521e-05
596 *275:712 1.64619e-05
597 *275:713 1.64619e-05
598 *275:714 1.10875e-05
599 *275:715 4.57962e-06
600 *275:716 0.000154686
601 *275:718 4.57952e-05
602 *275:719 0.000106855
603 *275:720 1.52651e-05
604 *275:721 1.5363e-05
605 *275:722 1.64619e-05
606 *275:723 1.64619e-05
607 *275:724 6.50787e-06
608 *275:726 2.79598e-05
609 *275:727 0.000152651
610 *275:728 0.000106855
611 *275:729 1.92129e-05
612 *275:730 0.000340901
613 *275:731 2.32508e-06
614 *275:732 3.87513e-06
615 *275:734 3.83242e-05
616 *275:735 0.000106855
617 *275:736 3.07261e-05
618 *275:737 0.000107541
619 *275:738 7.10615e-06
620 *275:739 0.000199719
621 *275:740 0.000340901
622 *275:741 5.94186e-06
623 *275:742 9.81699e-06
624 *275:743 4.21871e-05
625 *275:744 4.89296e-05
626 *275:745 3.07261e-05
627 *275:746 3.07261e-05
628 *275:747 9.21782e-05
629 *275:748 9.21782e-05
630 *275:749 3.15829e-06
631 *275:750 0.000199719
632 *275:751 4.66575e-05
633 *275:752 3.61679e-06
634 *275:753 5.94186e-06
635 *275:754 4.21871e-05
636 *275:755 6.98994e-06
637 *275:756 5.9535e-05
638 *275:757 3.07261e-05
639 *275:758 7.89572e-07
640 *275:759 0.000320566
641 *275:760 0.000104224
642 *275:761 9.21782e-05
643 *275:763 0.000228976
644 *275:764 0.000217735
645 *275:767 7.23097e-07
646 *275:769 1.40624e-05
647 *275:770 3.03701e-05
648 *275:771 2.63191e-06
649 *275:772 2.36872e-06
650 *275:773 0.000382416
651 *275:774 0.000106329
652 *275:775 0.000167916
653 *275:776 1.5363e-05
654 *275:777 0.000213711
655 *275:778 1.52651e-05
656 *275:779 0.000108675
657 *275:780 0.000171078
658 *275:781 3.22983e-05
659 *275:782 1.40624e-05
660 *275:783 2.41032e-06
661 *275:784 4.73743e-06
662 *275:785 1.57914e-06
663 *275:786 6.42185e-05
664 *275:787 1.5363e-05
665 *275:788 2.10553e-06
666 *275:789 0.000167916
667 *275:790 3.68467e-06
668 *275:791 1.5363e-05
669 *275:792 0.000261172
670 *275:793 0.000419176
671 *275:794 6.42415e-06
672 *275:795 9.76181e-05
673 *275:796 6.74891e-06
674 *275:797 1.20516e-06
675 *275:799 2.10553e-06
676 *275:801 2.36872e-06
677 *275:802 1.5363e-05
678 *275:804 0.000168993
679 *275:805 7.10615e-06
680 *275:806 1.5363e-05
681 *275:807 0.000276535
682 *275:808 1.55525e-05
683 *275:809 0.000310501
684 *275:810 1.17776e-05
685 *275:811 7.23097e-05
686 *275:812 4.82065e-07
687 *275:814 1.92826e-06
688 *275:817 6.29026e-05
689 *275:818 0.000245809
690 *275:819 3.42148e-06
691 *275:820 7.89572e-07
692 *275:821 7.63253e-06
693 *275:822 1.5363e-05
694 *275:823 1.55525e-05
695 *275:824 0.000171078
696 *275:825 5.35346e-06
697 *275:826 7.03118e-05
698 *275:828 7.23097e-07
699 *275:829 6.71136e-05
700 *275:830 1.84233e-06
701 *275:831 0.000107541
702 *275:833 3.94786e-06
703 *275:834 1.47387e-05
704 *275:835 6.14502e-05
705 *275:836 6.42415e-06
706 *275:837 6.221e-05
707 *275:838 0.000171078
708 *275:840 7.03118e-05
709 *275:842 4.21105e-06
710 *275:843 5.79019e-06
711 *275:844 0.000427422
712 *275:845 3.07261e-05
713 *275:846 3.15829e-06
714 *275:847 7.10615e-06
715 *275:848 6.5733e-05
716 *275:849 8.83321e-06
717 *275:850 5.32669e-05
718 *275:851 4.97872e-05
719 *275:852 0.000139973
720 *275:853 1.92826e-06
721 *275:855 3.94786e-06
722 *275:856 0.000447161
723 *275:857 6.73768e-05
724 *275:860 4.28277e-06
725 *275:861 2.40906e-06
726 *275:862 0.00034396
727 *275:863 5.4873e-05
728 *275:864 2.67673e-06
729 *275:865 0.00024884
730 *275:866 4.09755e-06
731 *275:868 0.000122904
732 *275:869 2.68454e-05
733 *275:870 0.000297405
734 *275:873 2.40906e-06
735 *275:874 0.000325223
736 *275:875 5.08579e-06
737 *275:876 5.08579e-06
738 *275:877 1.95401e-05
739 *275:878 0.000171078
740 *275:879 2.16929e-06
741 *275:880 0.000122904
742 *275:881 7.10615e-06
743 *275:882 0.000222659
744 *275:883 7.36934e-06
745 *275:885 0.000139973
746 *275:886 3.82772e-05
747 *275:888 2.40906e-06
748 *275:889 2.56966e-05
749 *275:890 1.15099e-05
750 *275:892 5.00062e-06
751 *275:894 4.60891e-05
752 *275:896 0.000139973
753 *275:897 1.33836e-06
754 *275:899 6.15648e-06
755 *275:900 5.21962e-05
756 *275:901 5.00062e-06
757 *275:902 4.60891e-05
758 *275:903 2.67673e-05
759 *275:906 3.50652e-05
760 *275:907 5.62113e-06
761 *275:909 3.15829e-06
762 *275:910 7.62868e-05
763 *275:911 0.000264393
764 *275:913 3.15829e-06
765 *275:914 2.9444e-06
766 *275:915 5.32669e-05
767 *275:916 0.000264393
768 *275:919 2.40906e-06
769 *275:920 4.28277e-06
770 *275:921 1.33836e-06
771 *275:923 3.1105e-05
772 *275:924 6.15648e-06
773 *275:925 9.3315e-05
774 *275:926 4.81811e-06
775 *275:927 0.000661867
776 *275:928 0.000202183
777 *275:930 0.000691737
778 *275:931 1.12423e-05
779 *275:932 0.000482128
780 *275:933 6.23362e-06
781 *275:934 5.37649e-05
782 *275:935 1.17776e-05
783 *275:936 6.69182e-06
784 *275:937 0.000342155
785 *275:939 1.481e-05
786 *275:940 3.01291e-05
787 *275:941 5.35346e-07
788 *275:942 8.29786e-06
789 *275:943 2.19492e-05
790 *275:944 0.00011848
791 *275:945 5.92401e-05
792 *275:947 1.60604e-06
793 *275:948 2.9444e-05
794 *275:949 0.00010367
795 *275:950 1.50646e-05
796 *275:951 0.0001481
797 *275:953 7.49484e-06
798 *275:954 8.83096e-06
799 *275:955 1.79216e-05
800 *275:956 4.20769e-05
801 *275:957 8.88601e-05
802 *275:959 1.2727e-05
803 *275:960 2.85707e-06
804 *275:961 4.59729e-05
805 *275:962 0.00036155
806 *275:963 3.89601e-06
807 *275:965 3.89601e-06
808 *275:966 3.01291e-05
809 *275:967 0.000331421
810 *275:970 1.481e-05
811 *275:971 5.92401e-05
812 *275:972 1.481e-05
813 *275:973 8.88601e-05
814 *275:974 3.11681e-06
815 *275:975 5.92401e-05
816 *275:976 9.61016e-06
817 *275:977 3.37654e-06
818 *275:978 4.44301e-05
819 *275:979 1.37659e-05
820 *275:980 1.81814e-05
821 *275:981 2.59734e-07
822 *275:982 1.481e-05
823 *275:983 1.63632e-05
824 *275:984 1.79216e-05
825 *275:985 3.11681e-06
826 *275:986 5.45441e-06
827 *275:988 0.000512195
828 *275:989 1.99995e-05
829 *275:990 4.15574e-06
830 *275:992 0.00013329
831 *275:993 1.50646e-05
832 *275:994 0.000497131
833 *275:995 3.63628e-06
834 *275:997 0.00013329
835 *275:998 8.88601e-05
836 *275:999 0.0001481
837 *275:1001 2.07787e-05
838 *275:1002 8.88601e-05
839 *275:1003 4.44301e-05
840 *275:1004 0.00013329
841 *275:1005 5.22065e-05
842 *275:1006 3.89601e-06
843 *275:1007 2.962e-05
844 *275:1008 0.000547301
845 *275:1009 3.01291e-05
846 *275:1010 7.01282e-06
847 *275:1011 2.4415e-05
848 *275:1012 4.67521e-06
849 *275:1013 5.58428e-05
850 *275:1014 0.000547301
851 *275:1015 6.64919e-05
852 *275:1017 0.00026658
853 *275:1018 7.79202e-07
854 *275:1019 6.12972e-05
855 *275:1020 0.000109604
856 *275:1021 4.44301e-05
857 *275:1022 0.000110548
858 *275:1023 0.00026658
859 *275:1025 5.45441e-06
860 *275:1026 0.000140919
861 *275:1027 1.56577e-05
862 *275:1028 4.44301e-05
863 *275:1029 6.49335e-06
864 *275:1030 6.76924e-05
865 *275:1031 1.5584e-05
866 *275:1033 4.6973e-05
867 *275:1034 0.000148813
868 *275:1035 9.13231e-05
869 *275:1036 2.85707e-06
870 *275:1038 4.6973e-05
871 *275:1039 0.000438691
872 *275:1040 0.000265575
873 *275:1041 0.000151357
874 *275:1042 5.08764e-06
875 *275:1043 8.85249e-05
876 *275:1044 5.19468e-06
877 *275:1045 4.6973e-05
878 *275:1046 0.000421289
879 *275:1047 1.81814e-06
880 *275:1048 1.47542e-05
881 *275:1049 0.000273715
882 *275:1050 2.54382e-06
883 *275:1051 2.28944e-06
884 *275:1052 0.000125261
885 *275:1053 2.33761e-06
886 *275:1054 3.81573e-06
887 *275:1055 1.481e-05
888 *275:1057 0.000555937
889 *275:1058 4.6973e-05
890 *275:1059 0.000147796
891 *275:1062 0.000234865
892 *275:1064 7.88584e-06
893 *275:1065 1.481e-05
894 *275:1066 0.000637393
895 *275:1067 4.6973e-05
896 *275:1068 2.54382e-07
897 *275:1069 0.000124647
898 *275:1070 4.57888e-06
899 *275:1071 0.000234865
900 *275:1072 4.07011e-06
901 *275:1073 2.59734e-07
902 *275:1074 8.14558e-05
903 *275:1075 1.3194e-05
904 *275:1076 7.37708e-06
905 *275:1078 0.000172234
906 *275:1079 1.0684e-05
907 *275:1080 4.60431e-05
908 *275:1081 0.000125261
909 *275:1083 2.59734e-07
910 *275:1084 0.000153051
911 *275:1085 1.9791e-05
912 *275:1086 1.32279e-05
913 *275:1087 0.000187892
914 *275:1088 6.10517e-06
915 *275:1089 5.03676e-05
916 *275:1090 0.000213426
917 *275:1092 0.000153051
918 *275:1093 6.59701e-06
919 *275:1094 5.85079e-06
920 *275:1095 1.88243e-05
921 *275:1096 1.56577e-05
922 *275:1098 4.32449e-06
923 *275:1099 2.95083e-05
924 *275:1100 0.00022411
925 *275:1101 8.14558e-05
926 *275:1104 2.13681e-05
927 *275:1105 0.000118033
928 *275:1107 0.000234865
929 *275:1108 2.7982e-06
930 *275:1109 3.73941e-05
931 *275:1110 0.000488735
932 *275:1111 2.54382e-06
933 *275:1112 0.000118033
934 *275:1113 0.000234865
935 *275:1115 0.000125261
936 *275:1116 0.000439862
937 *275:1117 1.1083e-05
938 *275:1119 1.56577e-05
939 *275:1120 0.000114472
940 *275:1121 0.000125261
941 *275:1122 3.25823e-05
942 *275:1123 7.65253e-05
943 *275:1124 1.16107e-05
944 *275:1125 1.56577e-05
945 *275:1126 0.000133805
946 *275:1127 0.000101498
947 *275:1128 3.06101e-05
948 *275:1129 0.000153051
949 *275:1130 5.27761e-07
950 *275:1131 4.57888e-06
951 *275:1132 1.83155e-05
952 *275:1133 1.01753e-06
953 *275:1134 0.000104805
954 *275:1135 0.000153051
955 *275:1136 1.62912e-05
956 *275:1137 7.65253e-05
957 *275:1139 9.9209e-06
958 *275:1140 0.000234865
959 *275:1142 3.30697e-06
960 *275:1143 0.00012244
961 *275:1144 3.25823e-05
962 *275:1145 1.62912e-05
963 *275:1146 0.000114038
964 *275:1147 5.34202e-06
965 *275:1148 0.000234865
966 *275:1150 1.62912e-05
967 *275:1151 3.25823e-05
968 *275:1152 5.80536e-06
969 *275:1153 0.000146621
970 *275:1155 9.33582e-05
971 *275:1156 1.62912e-05
972 *275:1157 3.9582e-06
973 *275:1158 1.18746e-05
974 *275:1159 6.51647e-05
975 *275:1160 1.74161e-05
976 *275:1161 9.36126e-05
977 *275:1162 7.38865e-06
978 *275:1163 6.86089e-06
979 *275:1164 6.06925e-06
980 *275:1165 6.51647e-05
981 *275:1166 7.44142e-05
982 *275:1167 2.45409e-05
983 *275:1168 2.54382e-07
984 *275:1169 1.13468e-05
985 *275:1170 2.90268e-06
986 *275:1172 3.25823e-05
987 *275:1173 0.000198966
988 *275:1174 8.1539e-05
989 *275:1175 7.12477e-06
990 *275:1177 3.9582e-06
991 *275:1179 0.000198966
992 *275:1180 0.000241187
993 *275:1181 7.12477e-06
994 *275:1184 0.000198966
995 *275:1185 0.000228076
996 *275:1186 4.53874e-05
997 *275:1188 0.000114038
998 *275:1189 0.000228076
999 *275:1190 3.16656e-06
1000 *275:1191 0.000114038
1001 *275:1192 2.00549e-05
1002 *275:1194 1.53051e-05
1003 *275:1195 2.19021e-05
1004 *275:1196 0.000201604
1005 *275:1197 1.84716e-06
1006 *275:1198 0.00026045
1007 *275:1199 3.25823e-05
1008 *275:1201 7.38865e-05
1009 *275:1202 2.6388e-07
1010 *275:1203 3.25823e-05
1011 *275:1204 4.88735e-05
1012 *275:1206 4.48596e-06
1013 *275:1207 0.000130329
1014 *275:1208 9.23581e-06
1015 *275:1209 9.31497e-05
1016 *275:1210 8.14558e-05
1017 *275:1211 4.74984e-06
1018 *275:1212 9.9219e-05
1019 *275:1213 0.00012244
1020 *275:1215 6.06925e-06
1021 *275:1216 0.000229576
1022 *275:1218 0.000213186
1023 *275:1219 1.62912e-05
1024 *275:1220 0.000208123
1025 *275:1221 1.62912e-05
1026 *275:1222 1.62912e-05
1027 *275:1223 0.000102072
1028 *275:1224 6.89686e-05
1029 *275:1225 1.62912e-05
1030 *275:1226 1.58328e-06
1031 *275:1227 2.75874e-05
1032 *275:1228 6.89686e-05
1033 *275:1229 3.69432e-06
1034 *275:1230 3.16656e-06
1035 *275:1231 2.75874e-05
1036 *275:1232 3.51973e-06
1037 *275:1233 8.97193e-06
1038 *275:1234 1.58328e-06
1039 *275:1235 0.000277053
1040 *275:1236 8.54792e-06
1041 *275:1237 5.2776e-06
1042 *275:1239 0.00033538
1043 *275:1240 5.02819e-06
1044 *275:1242 0.000116654
1045 *275:1243 6.89686e-05
1046 *275:1245 5.8327e-05
1047 *275:1246 1.37937e-05
1048 *275:1247 8.27623e-05
1049 *275:1248 2.75874e-05
1050 *275:1249 1.37937e-05
1051 *275:1250 1.37937e-05
1052 *275:1251 1.70958e-05
1053 *275:1252 2.75874e-05
1054 *275:1253 3.26832e-06
1055 *275:1254 1.1062e-05
1056 *275:1255 5.78241e-06
1057 *275:1256 1.83529e-05
1058 *275:1257 0.000220737
1059 *275:1258 1.20676e-05
1060 *275:1259 1.70958e-05
1061 *275:1260 1.25705e-06
1062 *275:1261 5.78241e-06
1063 *275:1262 0.000264734
1064 *275:1263 2.51409e-07
1065 *275:1264 1.23191e-05
1066 *275:1265 6.03382e-06
1067 *275:1268 4.17339e-05
1068 *275:1269 2.26268e-06
1069 *275:1271 3.77114e-06
1070 *275:1273 1.37937e-05
1071 *275:1276 2.75874e-05
1072 *275:1277 2.31297e-05
1073 *275:1278 8.27623e-05
1074 *275:1279 3.24318e-05
1075 *275:1280 2.84092e-05
1076 *275:1281 6.89686e-05
1077 *275:1282 7.03946e-06
1078 *275:1283 4.27396e-06
1079 *275:1284 5.07847e-05
1080 *275:1285 6.9389e-05
1081 *275:1287 2.01127e-06
1082 *275:1288 3.26832e-06
1083 *275:1289 2.31297e-05
1084 *275:1290 6.98918e-05
1085 *275:1293 4.02255e-06
1086 *275:1294 5.02819e-07

*RES
1 *275:1294 *598:RN 1.4
2 *275:1293 *566:RN 1.4
3 *275:1290 *275:1294 0.00428582
4 *275:1289 *275:1293 0.0342866
5 *275:1288 *630:RN 1.4
6 *275:1287 *823:RN 1.4
7 *275:1285 *275:1290 0.591443
8 *275:1284 *275:1289 0.162861
9 *275:1284 *275:1288 0.0278578
10 *275:1283 *275:1287 0.0171433
11 *275:1282 *855:RN 1.4
12 *275:1281 *275:1285 1.4
13 *275:1280 *275:1284 0.242149
14 *275:1279 *275:1283 0.0192862
15 *275:1279 *275:1282 0.0600015
16 *275:1278 *275:1281 0.621413
17 *275:1278 *275:1280 1.4
18 *275:1277 *275:1279 0.197148
19 *275:1276 *275:1278 0.124283
20 *275:1276 *275:1277 1.4
21 *275:1273 *275:1276 0.124283
22 *275:1271 *854:RN 1.4
23 *275:1269 *789:RN 1.4
24 *275:1268 *275:1273 1.4
25 *275:1265 *629:RN 1.4
26 *275:1264 *275:1271 0.0321436
27 *275:1263 *822:RN 1.4
28 *275:1262 *275:1269 0.0192862
29 *275:1262 *275:1268 0.355723
30 *275:1261 *788:RN 1.4
31 *275:1260 *565:RN 1.4
32 *275:1259 *275:1265 0.0514298
33 *275:1258 *275:1264 0.0728589
34 *275:1258 *275:1263 0.00214291
35 *275:1257 *275:1262 1.88147
36 *275:1256 *275:1261 0.0492869
37 *275:1255 *275:1260 0.0107145
38 *275:1254 *275:1259 0.094288
39 *275:1253 *275:1258 0.0278578
40 *275:1252 *275:1257 1.4
41 *275:1251 *275:1256 0.107145
42 *275:1251 *275:1255 0.0385724
43 *275:1250 *275:1254 1.4
44 *275:1249 *275:1253 1.4
45 *275:1248 *275:1252 0.248565
46 *275:1247 *275:1251 1.4
47 *275:1247 *275:1250 0.124283
48 *275:1246 *275:1249 0.124283
49 *275:1245 *275:1248 1.4
50 *275:1243 *275:1247 0.621413
51 *275:1242 *275:1246 1.4
52 *275:1242 *275:1245 0.497155
53 *275:1240 *597:RN 1.4
54 *275:1239 *275:1243 1.4
55 *275:1239 *275:1242 0.497155
56 *275:1237 *821:RN 1.4
57 *275:1236 *275:1240 0.0428582
58 *275:1235 *275:1239 2.36149
59 *275:1234 *853:RN 1.4
60 *275:1233 *275:1237 0.0428564
61 *275:1232 *275:1236 0.0300007
62 *275:1231 *275:1235 1.4
63 *275:1230 *275:1234 0.0128569
64 *275:1229 *275:1233 0.0299995
65 *275:1228 *275:1232 1.4
66 *275:1227 *275:1231 0.248565
67 *275:1226 *275:1230 0.0128569
68 *275:1225 *275:1229 1.4
69 *275:1224 *275:1228 0.621413
70 *275:1223 *275:1227 1.4
71 *275:1222 *275:1226 1.4
72 *275:1221 *275:1225 0.124283
73 *275:1220 *275:1224 1.4
74 *275:1220 *275:1223 0.870021
75 *275:1219 *275:1222 0.124283
76 *275:1218 *275:1221 1.4
77 *275:1218 *275:1220 0.869992
78 *275:1216 *275:1219 1.4
79 *275:1216 *275:1218 0.869984
80 *275:1215 *787:RN 1.4
81 *275:1213 *275:1216 0.994268
82 *275:1212 *275:1215 0.0492848
83 *275:1211 *628:RN 1.4
84 *275:1210 *275:1213 1.4
85 *275:1209 *275:1212 0.756415
86 *275:1208 *275:1211 0.0385707
87 *275:1207 *275:1210 0.621413
88 *275:1207 *275:1209 1.4
89 *275:1206 *275:1208 0.0364279
90 *275:1204 *275:1207 0.372848
91 *275:1203 *275:1206 1.4
92 *275:1202 *564:RN 1.4
93 *275:1201 *275:1204 1.4
94 *275:1199 *275:1203 0.248565
95 *275:1198 *275:1202 0.00214282
96 *275:1198 *275:1201 0.599989
97 *275:1197 *596:RN 1.4
98 *275:1196 *275:1199 1.4
99 *275:1196 *275:1198 1.51283
100 *275:1195 *275:1197 0.0149997
101 *275:1194 *275:1196 0.124283
102 *275:1192 *275:1195 0.162854
103 *275:1191 *275:1194 1.4
104 *275:1190 *595:RN 1.4
105 *275:1189 *275:1192 1.4
106 *275:1188 *275:1191 0.869979
107 *275:1186 *275:1190 0.0257138
108 *275:1185 *275:1189 1.73996
109 *275:1184 *275:1188 1.4
110 *275:1181 *627:RN 1.4
111 *275:1180 *275:1186 0.342851
112 *275:1180 *275:1185 1.4
113 *275:1179 *275:1184 1.61568
114 *275:1177 *820:RN 1.4
115 *275:1175 *563:RN 1.4
116 *275:1174 *275:1181 0.0578561
117 *275:1173 *275:1180 1.61568
118 *275:1172 *275:1179 1.4
119 *275:1170 *852:RN 1.4
120 *275:1169 *275:1177 0.0321423
121 *275:1168 *624:RN 1.4
122 *275:1167 *275:1175 0.0578561
123 *275:1166 *275:1174 0.604275
124 *275:1165 *275:1173 1.4
125 *275:1165 *275:1172 0.248565
126 *275:1164 *786:RN 1.4
127 *275:1163 *275:1170 0.023571
128 *275:1162 *275:1169 0.0599989
129 *275:1161 *275:1168 0.00214283
130 *275:1160 *275:1167 0.141426
131 *275:1159 *275:1166 1.4
132 *275:1159 *275:1165 0.248565
133 *275:1158 *275:1164 0.0492848
134 *275:1157 *275:1163 0.0321423
135 *275:1156 *275:1162 1.4
136 *275:1155 *275:1161 0.786417
137 *275:1153 *275:1160 1.4
138 *275:1153 *275:1159 0.248565
139 *275:1152 *275:1158 0.047142
140 *275:1151 *275:1157 1.4
141 *275:1150 *275:1156 0.124283
142 *275:1148 *275:1155 1.4
143 *275:1147 *594:RN 1.4
144 *275:1146 *275:1153 0.869979
145 *275:1145 *275:1152 1.4
146 *275:1144 *275:1151 0.248565
147 *275:1143 *275:1150 1.4
148 *275:1142 *593:RN 1.4
149 *275:1140 *275:1148 1.86433
150 *275:1139 *275:1147 0.0449994
151 *275:1137 *275:1146 1.4
152 *275:1136 *275:1145 0.124283
153 *275:1135 *275:1144 1.4
154 *275:1135 *275:1143 0.994268
155 *275:1134 *275:1142 0.0278567
156 *275:1133 *592:RN 1.4
157 *275:1132 *275:1140 1.4
158 *275:1131 *275:1139 0.0385709
159 *275:1130 *851:RN 1.4
160 *275:1129 *275:1137 0.621417
161 *275:1129 *275:1136 1.4
162 *275:1128 *275:1135 0.248567
163 *275:1127 *275:1134 0.854988
164 *275:1126 *275:1133 0.00857131
165 *275:1126 *275:1132 0.154284
166 *275:1125 *275:1131 1.4
167 *275:1124 *275:1130 0.00428564
168 *275:1123 *275:1129 0.621417
169 *275:1122 *275:1128 1.4
170 *275:1121 *275:1127 1.4
171 *275:1120 *275:1126 0.964272
172 *275:1119 *275:1125 0.124289
173 *275:1117 *275:1124 0.0899984
174 *275:1116 *275:1123 1.4
175 *275:1116 *275:1122 0.248565
176 *275:1115 *275:1121 0.99431
177 *275:1113 *275:1120 1.4
178 *275:1112 *275:1119 1.4
179 *275:1111 *626:RN 1.4
180 *275:1110 *275:1117 1.4
181 *275:1110 *275:1116 3.10707
182 *275:1109 *275:1115 1.4
183 *275:1108 *625:RN 1.4
184 *275:1107 *275:1113 1.86433
185 *275:1105 *275:1112 0.994271
186 *275:1104 *275:1111 0.0214283
187 *275:1101 *275:1110 0.621413
188 *275:1100 *275:1109 0.314995
189 *275:1100 *275:1108 0.0235711
190 *275:1099 *275:1107 1.4
191 *275:1098 *561:RN 1.4
192 *275:1096 *275:1105 1.4
193 *275:1095 *275:1104 0.158569
194 *275:1094 *785:RN 1.4
195 *275:1093 *819:RN 1.4
196 *275:1092 *275:1101 1.4
197 *275:1090 *275:1100 1.54926
198 *275:1090 *275:1099 0.248568
199 *275:1089 *275:1098 0.036428
200 *275:1088 *784:RN 1.4
201 *275:1087 *275:1096 0.124289
202 *275:1087 *275:1095 1.4
203 *275:1086 *275:1094 0.049285
204 *275:1085 *275:1093 0.0535705
205 *275:1084 *275:1092 1.24283
206 *275:1083 *590:RN 1.4
207 *275:1081 *275:1090 1.4
208 *275:1080 *275:1089 0.387852
209 *275:1079 *275:1088 0.0514278
210 *275:1078 *275:1087 1.36718
211 *275:1076 *275:1086 0.062142
212 *275:1075 *275:1085 0.107141
213 *275:1074 *275:1084 1.4
214 *275:1073 *275:1083 0.0021428
215 *275:1072 *849:RN 1.4
216 *275:1071 *275:1081 0.99431
217 *275:1071 *275:1080 1.4
218 *275:1070 *275:1079 0.0385709
219 *275:1069 *275:1078 1.4
220 *275:1068 *562:RN 1.4
221 *275:1067 *275:1076 1.4
222 *275:1066 *275:1075 1.4
223 *275:1066 *275:1074 0.621413
224 *275:1065 *275:1073 1.4
225 *275:1064 *275:1072 0.0342852
226 *275:1062 *275:1071 0.870021
227 *275:1062 *275:1070 1.4
228 *275:1059 *275:1069 1.04998
229 *275:1059 *275:1068 0.00214283
230 *275:1058 *275:1067 0.372866
231 *275:1057 *275:1066 4.35003
232 *275:1055 *275:1065 0.124283
233 *275:1054 *275:1064 0.0321424
234 *275:1053 *560:RN 1.4
235 *275:1052 *275:1062 0.99431
236 *275:1051 *850:RN 1.4
237 *275:1050 *818:RN 1.4
238 *275:1049 *275:1059 0.192854
239 *275:1049 *275:1058 1.4
240 *275:1048 *275:1057 1.4
241 *275:1047 *591:RN 1.4
242 *275:1046 *275:1055 1.4
243 *275:1045 *275:1054 1.4
244 *275:1044 *275:1053 0.0192852
245 *275:1043 *275:1052 1.4
246 *275:1042 *275:1051 0.0192854
247 *275:1041 *275:1050 0.0214283
248 *275:1040 *275:1049 2.11283
249 *275:1040 *275:1048 0.124284
250 *275:1039 *275:1047 0.0149996
251 *275:1039 *275:1046 3.47563
252 *275:1038 *275:1045 0.372866
253 *275:1036 *275:1044 0.0235709
254 *275:1035 *275:1043 0.745704
255 *275:1035 *275:1042 0.0235711
256 *275:1034 *275:1041 1.25355
257 *275:1033 *275:1040 1.4
258 *275:1031 *275:1039 0.128568
259 *275:1030 *275:1038 1.4
260 *275:1029 *783:RN 1.4
261 *275:1028 *275:1036 1.4
262 *275:1027 *275:1035 1.4
263 *275:1026 *275:1034 1.4
264 *275:1026 *275:1033 0.372866
265 *275:1025 *817:RN 1.4
266 *275:1023 *275:1031 1.4
267 *275:1022 *275:1030 0.569992
268 *275:1022 *275:1029 0.0535701
269 *275:1021 *275:1028 0.37285
270 *275:1020 *275:1027 0.124289
271 *275:1020 *275:1026 0.745733
272 *275:1019 *275:1025 0.0449989
273 *275:1018 *816:RN 1.4
274 *275:1017 *275:1023 2.2371
275 *275:1015 *275:1022 0.299993
276 *275:1015 *275:1021 1.4
277 *275:1014 *275:1020 1.4
278 *275:1013 *275:1019 0.460703
279 *275:1012 *275:1018 0.00642841
280 *275:1011 *275:1017 1.4
281 *275:1010 *623:RN 1.4
282 *275:1009 *275:1015 0.248565
283 *275:1008 *275:1014 4.5985
284 *275:1007 *275:1013 1.4
285 *275:1006 *275:1012 0.0321421
286 *275:1005 *275:1011 0.201424
287 *275:1005 *275:1010 0.0578557
288 *275:1004 *275:1009 1.4
289 *275:1003 *275:1008 1.4
290 *275:1003 *275:1007 0.248566
291 *275:1002 *275:1006 1.4
292 *275:1001 *275:1005 0.171424
293 *275:999 *275:1004 1.11855
294 *275:999 *275:1003 0.124283
295 *275:998 *275:1002 0.745699
296 *275:997 *275:1001 1.4
297 *275:995 *848:RN 1.4
298 *275:994 *275:999 1.4
299 *275:993 *275:998 1.4
300 *275:992 *275:997 1.11855
301 *275:990 *559:RN 1.4
302 *275:989 *275:995 0.0299993
303 *275:988 *275:994 4.10133
304 *275:988 *275:993 0.124283
305 *275:986 *275:992 1.4
306 *275:985 *782:RN 1.4
307 *275:984 *275:990 0.0342849
308 *275:983 *275:989 0.134997
309 *275:982 *275:988 1.4
310 *275:981 *622:RN 1.4
311 *275:980 *275:986 0.0449989
312 *275:980 *275:985 0.0257137
313 *275:979 *275:984 0.113569
314 *275:978 *275:983 1.4
315 *275:978 *275:982 0.124283
316 *275:977 *275:981 0.0021428
317 *275:976 *275:980 0.0792838
318 *275:975 *275:979 1.4
319 *275:975 *275:978 0.248566
320 *275:974 *275:977 0.0257137
321 *275:973 *275:976 1.4
322 *275:973 *275:975 0.248566
323 *275:972 *275:974 1.4
324 *275:971 *275:973 0.497133
325 *275:970 *275:972 0.124283
326 *275:967 *275:971 1.4
327 *275:966 *275:970 1.4
328 *275:965 *781:RN 1.4
329 *275:963 *815:RN 1.4
330 *275:962 *275:967 2.73422
331 *275:962 *275:966 0.248565
332 *275:961 *275:965 0.0321421
333 *275:960 *847:RN 1.4
334 *275:959 *275:963 0.0321421
335 *275:957 *275:962 1.4
336 *275:956 *275:961 0.347134
337 *275:955 *275:960 0.0235709
338 *275:954 *275:959 0.0728554
339 *275:953 *589:RN 1.4
340 *275:951 *275:957 0.745699
341 *275:951 *275:956 1.4
342 *275:950 *275:955 0.124283
343 *275:949 *275:954 1.4
344 *275:948 *275:953 0.0599991
345 *275:947 *621:RN 1.4
346 *275:945 *275:951 0.497133
347 *275:944 *275:950 1.4
348 *275:944 *275:949 0.869982
349 *275:943 *275:948 0.175712
350 *275:942 *275:947 0.0128569
351 *275:941 *780:RN 1.4
352 *275:940 *275:945 1.4
353 *275:939 *275:944 0.124283
354 *275:937 *275:943 1.4
355 *275:936 *275:942 0.0535706
356 *275:935 *275:941 0.00428565
357 *275:934 *275:940 0.248565
358 *275:934 *275:939 1.4
359 *275:933 *558:RN 1.4
360 *275:932 *275:937 2.73423
361 *275:932 *275:936 1.4
362 *275:931 *275:935 0.0899986
363 *275:930 *275:934 0.194995
364 *275:930 *275:933 0.0514273
365 *275:928 *275:932 1.11855
366 *275:928 *275:931 1.4
367 *275:927 *275:930 5.39774
368 *275:926 *588:RN 1.4
369 *275:925 *275:928 0.497132
370 *275:925 *275:927 1.4
371 *275:924 *275:926 0.0385708
372 *275:923 *275:925 0.248566
373 *275:921 *275:924 0.0107141
374 *275:920 *275:923 1.4
375 *275:919 *846:RN 1.4
376 *275:916 *275:921 1.4
377 *275:915 *275:920 0.0342852
378 *275:915 *275:919 0.0192854
379 *275:914 *557:RN 1.4
380 *275:913 *762:Y 1.4
381 *275:911 *275:916 2.11281
382 *275:910 *275:915 0.372851
383 *275:910 *275:914 0.0235711
384 *275:909 *275:913 0.0257148
385 *275:907 *620:RN 1.4
386 *275:906 *275:911 1.4
387 *275:903 *275:910 0.214282
388 *275:902 *275:909 1.4
389 *275:901 *587:RN 1.4
390 *275:900 *275:907 0.0449993
391 *275:900 *275:906 0.28071
392 *275:899 *779:RN 1.4
393 *275:897 *814:RN 1.4
394 *275:896 *275:903 1.4
395 *275:894 *275:902 0.372849
396 *275:892 *275:901 0.0407151
397 *275:890 *275:900 0.0921414
398 *275:889 *275:899 0.0492849
399 *275:888 *556:RN 1.4
400 *275:886 *275:897 0.0107141
401 *275:885 *275:896 1.11855
402 *275:883 *586:RN 1.4
403 *275:882 *275:894 1.4
404 *275:881 *619:RN 1.4
405 *275:880 *275:892 1.4
406 *275:879 *599:RN 1.4
407 *275:878 *275:890 1.4
408 *275:877 *275:889 0.156426
409 *275:876 *275:888 0.0192854
410 *275:875 *845:RN 1.4
411 *275:874 *275:886 0.29571
412 *275:874 *275:885 1.4
413 *275:873 *813:RN 1.4
414 *275:870 *275:883 0.0600013
415 *275:870 *275:882 1.8129
416 *275:869 *275:881 0.0578584
417 *275:868 *275:880 0.994265
418 *275:866 *275:879 0.0192852
419 *275:865 *275:878 1.36711
420 *275:865 *275:877 1.4
421 *275:864 *275:876 0.0214282
422 *275:863 *275:875 0.0407136
423 *275:862 *275:874 2.30782
424 *275:862 *275:873 0.0192854
425 *275:861 *812:RN 1.4
426 *275:860 *555:RN 1.4
427 *275:857 *275:870 0.548583
428 *275:856 *275:869 0.160718
429 *275:856 *275:868 1.4
430 *275:855 *618:RN 1.4
431 *275:853 *275:866 0.0171424
432 *275:852 *275:865 0.621415
433 *275:852 *275:864 1.4
434 *275:851 *275:863 0.398565
435 *275:850 *275:862 0.426422
436 *275:849 *275:861 0.0192854
437 *275:848 *275:860 0.0342852
438 *275:847 *778:RN 1.4
439 *275:846 *843:RN 1.4
440 *275:845 *275:857 1.4
441 *275:844 *275:856 3.48007
442 *275:843 *275:855 0.0321435
443 *275:842 *617:RN 1.4
444 *275:840 *275:853 1.4
445 *275:838 *275:852 0.497132
446 *275:838 *275:851 1.4
447 *275:837 *275:850 1.4
448 *275:836 *275:849 0.0514278
449 *275:835 *275:848 0.497147
450 *275:834 *275:847 0.0578584
451 *275:833 *275:846 0.0257148
452 *275:831 *275:845 0.248566
453 *275:831 *275:844 1.4
454 *275:830 *275:843 0.0150003
455 *275:829 *275:842 0.0342864
456 *275:828 *824:RN 1.4
457 *275:826 *275:840 0.621413
458 *275:825 *844:RN 1.4
459 *275:824 *275:838 0.869982
460 *275:824 *275:837 0.497132
461 *275:823 *275:836 1.4
462 *275:822 *275:835 1.4
463 *275:821 *275:834 0.0621442
464 *275:820 *275:833 0.00642871
465 *275:819 *554:RN 1.4
466 *275:818 *275:831 0.621415
467 *275:818 *275:830 1.4
468 *275:817 *275:829 0.512154
469 *275:814 *275:828 0.00642841
470 *275:812 *631:RN 1.4
471 *275:811 *275:826 1.4
472 *275:810 *275:825 0.0428565
473 *275:809 *275:824 1.4
474 *275:808 *275:823 0.124283
475 *275:807 *275:822 0.124283
476 *275:807 *275:821 1.4
477 *275:806 *275:820 1.4
478 *275:805 *275:819 0.0278577
479 *275:804 *275:818 1.36711
480 *275:802 *275:817 1.4
481 *275:801 *585:RN 1.4
482 *275:799 *553:RN 1.4
483 *275:797 *275:814 0.010714
484 *275:796 *567:RN 1.4
485 *275:795 *275:812 0.00428561
486 *275:795 *275:811 0.642841
487 *275:794 *275:810 0.0514278
488 *275:793 *275:809 2.48568
489 *275:793 *275:808 1.4
490 *275:792 *275:807 2.11281
491 *275:791 *275:806 0.124283
492 *275:790 *275:805 0.0300006
493 *275:789 *275:804 1.4
494 *275:788 *777:RN 1.4
495 *275:787 *275:802 0.124283
496 *275:786 *275:801 0.0192861
497 *275:785 *776:RN 1.4
498 *275:784 *275:799 0.0171432
499 *275:783 *790:RN 1.4
500 *275:782 *275:797 1.4
501 *275:781 *275:796 0.0599985
502 *275:781 *275:795 0.220709
503 *275:780 *275:794 1.4
504 *275:779 *275:793 0.869986
505 *275:778 *275:792 1.4
506 *275:777 *275:791 1.4
507 *275:776 *275:790 1.4
508 *275:775 *275:789 1.36717
509 *275:774 *275:788 0.0171432
510 *275:773 *275:787 1.4
511 *275:773 *275:786 0.503582
512 *275:772 *275:785 0.0128574
513 *275:771 *275:784 0.021429
514 *275:770 *275:783 0.021428
515 *275:769 *275:782 0.124283
516 *275:767 *275:781 0.00642841
517 *275:764 *275:780 1.36711
518 *275:764 *275:779 1.4
519 *275:763 *275:778 0.124288
520 *275:763 *275:777 1.74004
521 *275:761 *275:776 0.124283
522 *275:761 *275:775 1.4
523 *275:760 *275:774 0.848589
524 *275:759 *275:773 2.61006
525 *275:758 *275:772 0.00642871
526 *275:757 *275:771 1.4
527 *275:756 *275:770 0.248565
528 *275:756 *275:769 1.4
529 *275:755 *856:RN 1.4
530 *275:754 *275:767 1.4
531 *275:753 *616:RN 1.4
532 *275:752 *584:RN 1.4
533 *275:751 *275:764 0.372849
534 *275:750 *275:763 1.4
535 *275:749 *811:RN 1.4
536 *275:748 *275:761 0.621415
537 *275:748 *275:760 1.4
538 *275:747 *275:759 1.4
539 *275:746 *275:758 1.4
540 *275:745 *275:757 0.248566
541 *275:744 *275:756 0.280707
542 *275:744 *275:755 0.0621413
543 *275:743 *275:754 0.372848
544 *275:742 *275:753 0.0492869
545 *275:741 *275:752 0.0300007
546 *275:740 *275:751 1.4
547 *275:739 *275:750 1.61568
548 *275:738 *275:749 0.0257148
549 *275:737 *275:748 0.124283
550 *275:737 *275:747 0.745699
551 *275:736 *275:746 0.248566
552 *275:735 *275:745 1.4
553 *275:734 *275:744 0.0921406
554 *275:734 *275:743 1.4
555 *275:732 *275:742 0.0321436
556 *275:731 *275:741 0.0192862
557 *275:730 *275:740 2.73425
558 *275:729 *275:739 1.4
559 *275:729 *275:738 0.0321435
560 *275:728 *275:737 1.4
561 *275:727 *275:736 1.4
562 *275:727 *275:735 0.870018
563 *275:726 *275:734 0.248565
564 *275:724 *857:RN 1.4
565 *275:723 *275:732 1.4
566 *275:722 *275:731 1.4
567 *275:721 *275:730 1.4
568 *275:720 *275:729 0.124288
569 *275:719 *275:728 0.870018
570 *275:718 *275:727 0.372865
571 *275:716 *275:726 1.4
572 *275:715 *825:RN 1.4
573 *275:714 *275:724 0.0578557
574 *275:713 *275:723 0.124289
575 *275:712 *275:722 0.124289
576 *275:711 *275:721 0.124283
577 *275:711 *275:720 1.4
578 *275:710 *275:719 1.4
579 *275:709 *275:718 1.4
580 *275:708 *552:RN 1.4
581 *275:707 *275:716 1.36711
582 *275:706 *275:715 0.0407133
583 *275:705 *275:714 0.0407133
584 *275:704 *275:713 1.4
585 *275:703 *275:712 1.4
586 *275:702 *275:711 0.372849
587 *275:700 *275:710 3.72849
588 *275:700 *275:709 0.124283
589 *275:699 *275:708 0.00642873
590 *275:698 *275:707 1.4
591 *275:697 *275:706 1.4
592 *275:696 *275:705 1.4
593 *275:695 *275:704 0.99431
594 *275:695 *275:703 0.372866
595 *275:693 *275:702 1.4
596 *275:692 *842:RN 1.4
597 *275:691 *275:700 1.4
598 *275:689 *275:699 0.0257149
599 *275:687 *275:698 0.829265
600 *275:687 *275:697 1.4
601 *275:686 *275:696 0.124283
602 *275:685 *275:695 1.4
603 *275:684 *583:RN 1.4
604 *275:683 *275:693 0.994307
605 *275:682 *275:692 0.0535726
606 *275:682 *275:691 0.79716
607 *275:681 *810:RN 1.4
608 *275:679 *275:689 1.4
609 *275:678 *791:RN 1.4
610 *275:677 *275:687 0.164996
611 *275:677 *275:686 1.4
612 *275:675 *275:685 3.3558
613 *275:674 *275:684 0.00857164
614 *275:673 *275:683 1.4
615 *275:672 *275:682 1.68861
616 *275:671 *275:681 0.00642873
617 *275:670 *841:RN 1.4
618 *275:668 *275:679 0.124289
619 *275:667 *275:678 0.0235709
620 *275:666 *275:677 0.124283
621 *275:665 *615:RN 1.4
622 *275:664 *275:675 1.4
623 *275:664 *275:674 0.047144
624 *275:663 *275:673 0.621415
625 *275:663 *275:672 1.4
626 *275:662 *275:671 0.0171433
627 *275:661 *275:670 0.00428582
628 *275:660 *775:RN 1.4
629 *275:659 *275:668 1.4
630 *275:658 *275:667 0.0621413
631 *275:657 *275:666 1.4
632 *275:656 *275:665 0.0492869
633 *275:656 *275:664 1.66076
634 *275:655 *275:663 1.73997
635 *275:655 *275:662 1.4
636 *275:654 *275:661 0.711446
637 *275:653 *275:660 0.0364295
638 *275:653 *275:659 0.0900022
639 *275:651 *275:658 1.4
640 *275:651 *275:657 0.248565
641 *275:650 *275:656 1.4
642 *275:649 *275:655 3.85295
643 *275:649 *275:654 1.4
644 *275:648 *275:653 1.65004
645 *275:647 *568:RN 1.4
646 *275:646 *275:651 0.248565
647 *275:644 *275:650 1.4
648 *275:643 *275:649 0.124289
649 *275:643 *275:648 1.4
650 *275:642 *275:647 0.0514273
651 *275:641 *275:646 1.4
652 *275:640 *632:RN 1.4
653 *275:638 *275:644 3.12436
654 *275:636 *275:643 0.124289
655 *275:635 *275:642 0.0171424
656 *275:634 *275:641 0.589271
657 *275:634 *275:640 0.0342849
658 *275:633 *774:RN 1.4
659 *275:632 *275:638 1.4
660 *275:631 *809:RN 1.4
661 *275:630 *275:636 1.4
662 *275:628 *275:635 1.4
663 *275:627 *275:634 0.0321421
664 *275:626 *275:633 0.0107145
665 *275:626 *275:632 1.4
666 *275:625 *275:631 0.0364295
667 *275:625 *275:630 0.53787
668 *275:624 *840:RN 1.4
669 *275:622 *275:628 0.124283
670 *275:621 *275:627 1.4
671 *275:620 *275:626 0.0621444
672 *275:619 *275:625 0.207862
673 *275:618 *275:624 0.0492869
674 *275:617 *808:RN 1.4
675 *275:616 *275:622 1.4
676 *275:615 *275:621 0.124283
677 *275:612 *275:620 1.4
678 *275:611 *275:619 1.4
679 *275:610 *275:618 0.732875
680 *275:609 *275:617 0.0214291
681 *275:608 *275:616 0.124283
682 *275:608 *275:615 1.4
683 *275:607 *600:RN 1.4
684 *275:606 *551:RN 1.4
685 *275:605 *275:612 0.124289
686 *275:604 *275:611 2.48577
687 *275:604 *275:610 1.4
688 *275:603 *275:609 0.158575
689 *275:602 *275:608 1.70353
690 *275:602 *275:607 0.00428561
691 *275:601 *275:606 0.0407153
692 *275:600 *275:605 1.4
693 *275:599 *275:604 0.124289
694 *275:599 *275:603 1.4
695 *275:598 *275:602 5.87774
696 *275:597 *275:601 0.0257149
697 *275:597 *275:600 0.124289
698 *275:596 *275:599 0.248578
699 *275:596 *275:598 1.4
700 *275:595 *275:597 1.4
701 *275:594 *275:596 0.124289
702 *275:593 *275:595 0.124289
703 *275:591 *275:594 1.4
704 *275:590 *275:593 1.4
705 *275:589 *839:RN 1.4
706 *275:586 *275:591 0.745733
707 *275:586 *275:590 0.745733
708 *275:585 *275:589 0.047144
709 *275:584 *807:RN 1.4
710 *275:583 *773:RN 1.4
711 *275:581 *275:586 1.4
712 *275:580 *275:585 0.0364295
713 *275:579 *275:584 0.047142
714 *275:578 *275:583 0.0428564
715 *275:577 *550:RN 1.4
716 *275:576 *275:581 3.48009
717 *275:576 *275:580 1.4
718 *275:575 *275:579 0.929984
719 *275:575 *275:578 0.906413
720 *275:574 *275:577 0.0535705
721 *275:573 *275:576 0.497152
722 *275:573 *275:575 1.4
723 *275:572 *275:574 0.0407136
724 *275:571 *275:573 0.124283
725 *275:570 *275:572 1.4
726 *275:569 *275:571 1.4
727 *275:568 *275:570 0.497132
728 *275:566 *275:569 0.745701
729 *275:566 *275:568 1.4
730 *275:565 *614:RN 1.4
731 *275:562 *275:566 3.40494
732 *275:562 *275:565 0.0535705
733 *275:561 *582:RN 1.4
734 *275:560 *613:RN 1.4
735 *275:558 *275:562 1.73568
736 *275:558 *275:561 0.0557133
737 *275:557 *275:560 0.00214282
738 *275:556 *581:RN 1.4
739 *275:553 *275:558 0.0792843
740 *275:552 *275:557 1.53854
741 *275:552 *275:556 0.00214282
742 *275:551 *578:RN 1.4
743 *275:550 *577:RN 1.4
744 *275:549 *275:553 1.4
745 *275:548 *275:552 0.047142
746 *275:547 *275:551 0.0600015
747 *275:545 *275:550 0.11786
748 *275:544 *275:549 4.59847
749 *275:544 *275:548 1.4
750 *275:540 *275:547 0.925737
751 *275:538 *609:RN 1.4
752 *275:537 *275:545 1.4
753 *275:536 *275:544 0.745698
754 *275:535 *612:RN 1.4
755 *275:534 *580:RN 1.4
756 *275:532 *545:RN 1.4
757 *275:531 *275:540 1.4
758 *275:530 *610:RN 1.4
759 *275:529 *275:538 0.0492869
760 *275:528 *275:537 1.24283
761 *275:527 *275:536 1.4
762 *275:526 *275:535 0.059999
763 *275:525 *275:534 0.0407136
764 *275:524 *768:RN 1.4
765 *275:523 *275:532 0.0150002
766 *275:521 *275:531 0.869981
767 *275:520 *275:530 0.00642873
768 *275:519 *275:529 0.195005
769 *275:519 *275:528 1.4
770 *275:518 *275:527 0.124284
771 *275:517 *275:526 1.01141
772 *275:517 *275:525 0.0492849
773 *275:516 *275:524 0.0385719
774 *275:515 *275:523 0.321433
775 *275:514 *546:RN 1.4
776 *275:513 *275:521 1.4
777 *275:513 *275:520 0.291436
778 *275:512 *275:519 1.24289
779 *275:511 *275:518 1.4
780 *275:510 *275:517 1.4
781 *275:509 *275:516 0.019286
782 *275:508 *275:515 1.4
783 *275:507 *275:514 0.0278578
784 *275:506 *275:513 1.24289
785 *275:505 *275:512 1.4
786 *275:503 *275:511 2.11281
787 *275:503 *275:510 0.124283
788 *275:502 *275:509 1.4
789 *275:502 *275:508 0.37285
790 *275:501 *275:507 0.0342866
791 *275:500 *275:506 1.4
792 *275:500 *275:505 0.372849
793 *275:499 *771:RN 1.4
794 *275:498 *275:503 1.4
795 *275:496 *275:502 0.869982
796 *275:494 *275:501 1.4
797 *275:494 *275:500 0.994264
798 *275:493 *275:499 0.0107141
799 *275:492 *275:498 0.994268
800 *275:490 *835:RN 1.4
801 *275:489 *275:496 1.4
802 *275:488 *834:RN 1.4
803 *275:486 *275:494 0.621415
804 *275:485 *275:493 0.0299995
805 *275:484 *275:492 1.4
806 *275:483 *579:RN 1.4
807 *275:482 *275:490 0.0578586
808 *275:481 *275:489 0.876444
809 *275:481 *275:488 0.0428582
810 *275:480 *769:RN 1.4
811 *275:479 *275:486 1.4
812 *275:477 *275:485 1.4
813 *275:476 *275:484 0.124283
814 *275:475 *275:483 0.0342866
815 *275:474 *275:482 0.0985738
816 *275:473 *275:481 2.60363
817 *275:472 *275:480 0.047144
818 *275:472 *275:479 0.818591
819 *275:471 *806:RN 1.4
820 *275:470 *275:477 0.248566
821 *275:469 *275:476 1.4
822 *275:468 *275:475 0.0557156
823 *275:467 *275:474 1.4
824 *275:466 *275:473 1.4
825 *275:465 *275:472 0.0514298
826 *275:464 *275:471 0.023571
827 *275:463 *275:470 1.4
828 *275:463 *275:469 3.47994
829 *275:462 *275:468 1.4
830 *275:461 *275:467 0.248566
831 *275:461 *275:466 0.497132
832 *275:460 *275:465 1.4
833 *275:459 *275:464 0.0321423
834 *275:457 *275:463 0.297852
835 *275:455 *275:462 0.124283
836 *275:454 *275:461 1.4
837 *275:453 *275:460 1.11855
838 *275:452 *275:459 1.4
839 *275:451 *548:RN 1.4
840 *275:450 *275:457 1.4
841 *275:448 *611:RN 1.4
842 *275:447 *275:455 1.4
843 *275:446 *275:454 0.745732
844 *275:446 *275:453 1.4
845 *275:445 *275:452 0.124283
846 *275:442 *275:451 0.047142
847 *275:442 *275:450 1.4
848 *275:440 *770:RN 1.4
849 *275:439 *275:448 0.0514298
850 *275:439 *275:447 1.0136
851 *275:438 *275:446 0.372866
852 *275:437 *275:445 1.4
853 *275:436 *838:RN 1.4
854 *275:435 *772:RN 1.4
855 *275:433 *275:442 0.0492849
856 *275:432 *547:RN 1.4
857 *275:431 *275:440 0.00857164
858 *275:430 *275:439 2.71507
859 *275:429 *275:438 1.4
860 *275:428 *275:437 1.0007
861 *275:428 *275:436 0.0192854
862 *275:427 *275:435 0.00642846
863 *275:426 *549:RN 1.4
864 *275:425 *275:433 1.4
865 *275:424 *275:432 0.0107145
866 *275:423 *275:431 0.278578
867 *275:422 *275:430 1.4
868 *275:422 *275:429 0.869981
869 *275:421 *275:428 0.863556
870 *275:421 *275:427 0.059999
871 *275:420 *275:426 0.0407136
872 *275:419 *275:425 0.745698
873 *275:418 *275:424 0.831449
874 *275:417 *275:423 1.4
875 *275:417 *275:422 1.98853
876 *275:416 *275:421 1.4
877 *275:415 *275:420 0.509991
878 *275:414 *275:419 1.4
879 *275:413 *275:418 1.4
880 *275:413 *275:417 0.372849
881 *275:412 *275:416 0.248566
882 *275:412 *275:415 1.4
883 *275:411 *275:414 0.745701
884 *275:410 *275:413 0.372849
885 *275:409 *275:412 1.61568
886 *275:409 *275:411 1.4
887 *275:408 *275:410 1.4
888 *275:405 *275:409 0.497132
889 *275:404 *275:408 0.745732
890 *275:403 *805:RN 1.4
891 *275:402 *837:RN 1.4
892 *275:401 *275:405 1.4
893 *275:399 *275:404 1.4
894 *275:398 *275:403 0.0578561
895 *275:397 *275:402 0.0171426
896 *275:397 *275:401 0.276424
897 *275:396 *804:RN 1.4
898 *275:394 *275:399 1.73996
899 *275:393 *275:398 0.657846
900 *275:393 *275:397 0.717845
901 *275:392 *275:396 0.0342851
902 *275:391 *836:RN 1.4
903 *275:390 *275:394 1.4
904 *275:389 *275:393 1.4
905 *275:388 *275:392 0.0107141
906 *275:387 *275:391 0.0107145
907 *275:387 *275:390 0.561442
908 *275:386 *275:389 2.98279
909 *275:386 *275:388 1.4
910 *275:385 *275:387 1.80004
911 *275:384 *275:386 0.994264
912 *275:384 *275:385 1.4
913 *275:383 *275:384 0.994264
914 *275:381 *275:383 1.4
915 *275:380 *803:RN 1.4
916 *275:379 *275:381 0.124289
917 *275:378 *275:380 0.0150004
918 *275:375 *275:379 1.4
919 *275:374 *275:378 0.0514298
920 *275:372 *576:RN 1.4
921 *275:371 *802:RN 1.4
922 *275:370 *275:375 2.11281
923 *275:370 *275:374 1.4
924 *275:369 *608:RN 1.4
925 *275:368 *275:372 0.00214289
926 *275:367 *275:371 0.0342862
927 *275:366 *275:370 0.124283
928 *275:365 *275:369 0.0407148
929 *275:364 *275:368 0.308575
930 *275:363 *275:367 0.0150002
931 *275:362 *275:366 1.4
932 *275:361 *275:365 0.0107144
933 *275:360 *275:364 1.4
934 *275:359 *275:363 1.4
935 *275:358 *275:362 3.23148
936 *275:357 *275:361 1.4
937 *275:357 *275:360 2.60995
938 *275:356 *275:359 0.745699
939 *275:356 *275:358 1.4
940 *275:354 *275:357 1.4914
941 *275:352 *275:356 0.124283
942 *275:349 *767:RN 1.4
943 *275:348 *275:354 1.4
944 *275:347 *800:RN 1.4
945 *275:345 *275:352 1.4
946 *275:344 *801:RN 1.4
947 *275:343 *833:RN 1.4
948 *275:342 *275:349 0.0300004
949 *275:342 *275:348 0.295718
950 *275:341 *275:347 0.0514292
951 *275:340 *543:RN 1.4
952 *275:339 *275:345 3.85291
953 *275:338 *275:344 0.0578579
954 *275:337 *275:343 0.0385719
955 *275:336 *275:342 0.201431
956 *275:335 *275:341 0.0321433
957 *275:334 *275:340 0.0171431
958 *275:332 *275:339 1.4
959 *275:331 *275:338 0.0150002
960 *275:330 *275:337 0.25286
961 *275:329 *275:336 1.4
962 *275:328 *275:335 1.4
963 *275:327 *275:334 0.383576
964 *275:326 *544:RN 1.4
965 *275:325 *275:332 0.124283
966 *275:325 *275:331 1.4
967 *275:324 *275:330 1.4
968 *275:324 *275:329 0.37285
969 *275:323 *275:328 1.11855
970 *275:323 *275:327 1.4
971 *275:322 *275:326 0.0128573
972 *275:321 *275:325 1.4914
973 *275:321 *275:324 0.124283
974 *275:319 *275:323 0.124283
975 *275:318 *275:322 0.0600008
976 *275:318 *275:321 1.4
977 *275:317 *832:RN 1.4
978 *275:316 *275:319 1.4
979 *275:316 *275:318 2.48575
980 *275:315 *275:317 0.0471435
981 *275:315 *275:316 0.0942869
982 *275:313 *275:315 0.0300004
983 *275:312 *574:RN 1.4
984 *275:311 *275:313 1.4
985 *275:309 *275:312 0.0557129
986 *275:308 *275:311 0.124283
987 *275:306 *575:RN 1.4
988 *275:304 *275:309 0.00428561
989 *275:303 *275:308 1.4
990 *275:302 *766:RN 1.4
991 *275:301 *275:306 0.0450006
992 *275:300 *542:RN 1.4
993 *275:299 *275:304 1.4
994 *275:298 *275:303 0.621437
995 *275:297 *275:302 0.0450006
996 *275:296 *275:301 0.150002
997 *275:294 *275:300 0.0492845
998 *275:293 *275:299 3.35577
999 *275:291 *275:298 1.4
1000 *275:290 *275:297 0.366433
1001 *275:289 *275:296 1.4
1002 *275:288 *607:RN 1.4
1003 *275:287 *275:294 0.374991
1004 *275:287 *275:293 1.4
1005 *275:286 *765:RN 1.4
1006 *275:284 *275:291 0.248566
1007 *275:284 *275:290 1.4
1008 *275:283 *275:289 2.9828
1009 *275:282 *275:288 0.055715
1010 *275:280 *275:287 0.362134
1011 *275:280 *275:286 0.0407133
1012 *275:279 *606:RN 1.4
1013 *275:278 *275:284 0.745699
1014 *275:277 *275:283 1.4
1015 *275:277 *275:282 0.00857154
1016 *275:276 *831:RN 1.4
1017 *275:275 *275:280 0.205709
1018 *275:275 *275:279 0.0192852
1019 *275:274 *275:278 1.4
1020 *275:274 *275:277 0.497149
1021 *275:273 *275:276 0.0599985
1022 *275:272 *275:275 0.302135
1023 *275:272 *275:274 5.21994
1024 *275:271 *275:273 0.0299993
1025 *275:270 *275:272 1.4
1026 *275:268 *275:271 1.4
1027 *275:268 *275:270 0.497151
1028 *275:267 *605:RN 1.4
1029 *275:265 *275:268 0.621439
1030 *275:263 *275:267 0.0385705
1031 *275:262 *799:RN 1.4
1032 *275:261 *275:265 1.4
1033 *275:260 *830:RN 1.4
1034 *275:259 *275:263 0.411418
1035 *275:258 *275:262 0.0449989
1036 *275:258 *275:261 0.400704
1037 *275:257 *275:260 0.0385705
1038 *275:256 *275:259 1.4
1039 *275:255 *275:258 2.95493
1040 *275:254 *275:257 0.00857122
1041 *275:253 *275:256 0.994302
1042 *275:253 *275:255 1.4
1043 *275:252 *275:254 1.4
1044 *275:251 *275:253 0.372863
1045 *275:250 *275:252 0.248575
1046 *275:249 *275:251 1.4
1047 *275:247 *275:250 1.4
1048 *275:247 *275:249 0.372848
1049 *275:246 *798:RN 1.4
1050 *275:243 *275:247 1.36711
1051 *275:242 *275:246 0.0128568
1052 *275:241 *764:RN 1.4
1053 *275:239 *573:RN 1.4
1054 *275:238 *275:243 1.4
1055 *275:237 *275:242 0.462846
1056 *275:236 *275:241 0.00428561
1057 *275:235 *763:RN 1.4
1058 *275:234 *275:239 0.0299993
1059 *275:233 *275:238 0.124288
1060 *275:233 *275:237 1.4
1061 *275:232 *275:236 0.754267
1062 *275:231 *275:235 0.0428561
1063 *275:230 *275:234 1.55353
1064 *275:229 *275:233 0.745726
1065 *275:229 *275:232 1.4
1066 *275:228 *275:231 0.00857122
1067 *275:227 *275:230 1.4
1068 *275:224 *275:229 0.248575
1069 *275:223 *275:228 1.4
1070 *275:223 *275:227 1.11859
1071 *275:222 *539:RN 1.4
1072 *275:221 *541:RN 1.4
1073 *275:220 *275:224 1.4
1074 *275:219 *275:223 0.248575
1075 *275:218 *275:222 0.0385708
1076 *275:217 *275:221 0.0192852
1077 *275:217 *275:220 0.548558
1078 *275:216 *275:219 1.4
1079 *275:214 *275:218 1.4
1080 *275:213 *275:217 0.569986
1081 *275:212 *275:216 0.124283
1082 *275:211 *538:RN 1.4
1083 *275:210 *275:214 1.4
1084 *275:208 *275:213 1.4
1085 *275:207 *275:212 1.4
1086 *275:206 *275:211 0.0214282
1087 *275:205 *275:210 0.533563
1088 *275:204 *797:RN 1.4
1089 *275:203 *275:208 0.621439
1090 *275:203 *275:207 0.870014
1091 *275:202 *275:206 0.0107141
1092 *275:201 *275:205 1.4
1093 *275:200 *275:204 0.0342852
1094 *275:199 *275:203 1.4
1095 *275:198 *275:202 1.4
1096 *275:198 *275:201 0.124283
1097 *275:197 *275:200 0.0278567
1098 *275:196 *275:199 1.61568
1099 *275:194 *275:198 0.248565
1100 *275:193 *275:197 1.4
1101 *275:192 *275:196 1.4
1102 *275:191 *537:RN 1.4
1103 *275:190 *275:194 1.4
1104 *275:188 *275:193 3.85276
1105 *275:188 *275:192 0.124283
1106 *275:186 *275:191 0.0149998
1107 *275:186 *275:190 0.203568
1108 *275:185 *540:RN 1.4
1109 *275:184 *275:188 1.4
1110 *275:182 *536:RN 1.4
1111 *275:181 *275:186 0.0449993
1112 *275:180 *275:185 0.0214282
1113 *275:180 *275:184 1.35426
1114 *275:178 *535:RN 1.4
1115 *275:177 *275:182 0.0278567
1116 *275:176 *275:181 1.4
1117 *275:175 *275:180 4.73564
1118 *275:172 *534:RN 1.4
1119 *275:171 *275:178 0.00214282
1120 *275:170 *275:177 0.0149998
1121 *275:169 *275:176 0.994261
1122 *275:169 *275:175 1.4
1123 *275:168 *532:RN 1.4
1124 *275:166 *533:RN 1.4
1125 *275:165 *275:172 0.0385708
1126 *275:164 *275:171 0.199283
1127 *275:163 *275:170 1.4
1128 *275:163 *275:169 0.248565
1129 *275:162 *275:168 0.0599985
1130 *275:161 *531:RN 1.4
1131 *275:160 *275:166 0.0578562
1132 *275:159 *275:165 0.186426
1133 *275:158 *275:164 1.4
1134 *275:158 *275:163 1.73996
1135 *275:157 *275:162 0.293564
1136 *275:157 *275:161 0.0257137
1137 *275:156 *275:160 0.132855
1138 *275:155 *275:159 1.4
1139 *275:155 *275:158 0.621413
1140 *275:154 *275:157 0.0257137
1141 *275:153 *275:156 1.4
1142 *275:153 *275:155 3.85276
1143 *275:152 *275:154 1.4
1144 *275:152 *275:153 4.34993
1145 *275:150 *275:152 0.124284
1146 *275:149 *796:RN 1.4
1147 *275:147 *275:150 1.4
1148 *275:146 *275:149 0.0514273
1149 *275:145 *530:RN 1.4
1150 *275:142 *275:147 2.60994
1151 *275:141 *275:146 0.372848
1152 *275:140 *275:145 0.0257137
1153 *275:139 *529:RN 1.4
1154 *275:138 *795:RN 1.4
1155 *275:137 *275:142 1.4
1156 *275:137 *275:141 1.4
1157 *275:136 *275:140 0.0514273
1158 *275:135 *275:139 0.021428
1159 *275:133 *275:138 0.0385705
1160 *275:132 *275:137 0.621419
1161 *275:131 *275:136 1.4
1162 *275:130 *275:135 0.0599985
1163 *275:127 *829:RN 1.4
1164 *275:126 *275:133 0.184281
1165 *275:126 *275:132 1.4
1166 *275:125 *275:131 0.248565
1167 *275:124 *275:130 1.4
1168 *275:123 *604:RN 1.4
1169 *275:122 *572:RN 1.4
1170 *275:121 *275:127 0.00857122
1171 *275:120 *275:126 3.97705
1172 *275:120 *275:125 1.4
1173 *275:119 *275:124 0.248565
1174 *275:118 *275:123 0.0428561
1175 *275:117 *275:122 0.010714
1176 *275:116 *275:121 0.33642
1177 *275:114 *275:120 0.372848
1178 *275:114 *275:119 1.4
1179 *275:113 *275:118 0.398562
1180 *275:113 *275:117 0.171424
1181 *275:112 *275:116 1.4
1182 *275:111 *635:RN 1.4
1183 *275:109 *275:114 3.35563
1184 *275:108 *275:113 1.4
1185 *275:108 *275:112 0.745696
1186 *275:107 *275:111 0.0364277
1187 *275:106 *603:RN 1.4
1188 *275:102 *275:109 1.4
1189 *275:102 *275:108 1.24283
1190 *275:101 *275:107 0.0342849
1191 *275:100 *275:106 0.0557129
1192 *275:99 *860:RN 1.4
1193 *275:97 *828:RN 1.4
1194 *275:96 *634:RN 1.4
1195 *275:95 *275:102 0.497131
1196 *275:94 *275:101 1.4
1197 *275:93 *275:100 0.0364277
1198 *275:92 *275:99 0.0621413
1199 *275:91 *571:RN 1.4
1200 *275:90 *275:97 0.00642841
1201 *275:89 *275:96 0.0257142
1202 *275:88 *275:95 1.4
1203 *275:87 *275:94 0.248565
1204 *275:86 *275:93 1.4
1205 *275:85 *275:92 0.0364277
1206 *275:84 *275:91 0.0471417
1207 *275:83 *275:90 0.0385705
1208 *275:81 *275:89 0.0171428
1209 *275:80 *275:88 1.36711
1210 *275:80 *275:87 1.4
1211 *275:79 *275:86 0.372848
1212 *275:78 *275:85 1.4
1213 *275:77 *275:84 0.0578557
1214 *275:76 *275:83 1.4
1215 *275:75 *859:RN 1.4
1216 *275:74 *275:81 1.4
1217 *275:72 *275:80 0.124283
1218 *275:72 *275:79 1.4
1219 *275:71 *275:78 0.124283
1220 *275:70 *275:77 1.4
1221 *275:70 *275:76 0.124283
1222 *275:69 *275:75 0.0192852
1223 *275:67 *275:74 0.124289
1224 *275:65 *602:RN 1.4
1225 *275:64 *275:72 0.124283
1226 *275:64 *275:71 1.4
1227 *275:63 *275:70 0.124283
1228 *275:61 *275:69 0.010714
1229 *275:60 *793:RN 1.4
1230 *275:59 *275:67 1.4
1231 *275:58 *570:RN 1.4
1232 *275:57 *275:65 0.0385713
1233 *275:56 *275:64 0.621413
1234 *275:56 *275:63 1.4
1235 *275:55 *794:RN 1.4
1236 *275:54 *275:61 1.4
1237 *275:53 *275:60 0.0214285
1238 *275:52 *275:59 0.0942853
1239 *275:52 *275:58 0.0364284
1240 *275:51 *275:57 0.212142
1241 *275:50 *275:56 0.552844
1242 *275:50 *275:55 0.00428561
1243 *275:49 *275:54 0.248565
1244 *275:47 *275:53 0.0599998
1245 *275:46 *275:52 0.154285
1246 *275:45 *275:51 1.4
1247 *275:44 *275:50 2.67851
1248 *275:44 *275:49 1.4
1249 *275:43 *827:RN 1.4
1250 *275:42 *275:47 1.4
1251 *275:41 *275:46 1.4
1252 *275:41 *275:45 0.497155
1253 *275:40 *275:44 2.74924
1254 *275:40 *275:43 0.0557141
1255 *275:39 *275:42 0.124289
1256 *275:38 *275:41 0.372866
1257 *275:37 *275:40 1.10357
1258 *275:37 *275:39 1.4
1259 *275:36 *275:38 1.4
1260 *275:35 *275:37 0.497141
1261 *275:35 *275:36 0.24857
1262 *275:32 *275:35 1.4
1263 *275:31 *792:RN 1.4
1264 *275:30 *601:RN 1.4
1265 *275:29 *275:32 1.24289
1266 *275:27 *275:31 0.0235713
1267 *275:26 *275:30 0.00642855
1268 *275:25 *275:29 1.4
1269 *275:24 *858:RN 1.4
1270 *275:22 *275:27 0.0492855
1271 *275:21 *275:26 0.00857139
1272 *275:20 *275:25 0.419998
1273 *275:20 *275:24 0.0149999
1274 *275:19 *826:RN 1.4
1275 *275:18 *275:22 1.4
1276 *275:17 *275:21 1.4
1277 *275:16 *275:20 0.109285
1278 *275:16 *275:19 0.0407141
1279 *275:15 *275:18 0.124289
1280 *275:14 *275:17 0.248577
1281 *275:12 *275:16 0.464998
1282 *275:12 *275:15 1.4
1283 *275:11 *275:14 1.4
1284 *275:10 *569:RN 1.4
1285 *275:9 *275:12 0.497141
1286 *275:9 *275:11 1.24285
1287 *275:8 *275:10 0.0257142
1288 *275:7 *275:9 1.4
1289 *275:6 *275:8 0.0407141
1290 *275:5 *275:7 0.124289
1291 *275:5 *275:6 1.4
1292 *275:4 *275:5 0.124289
1293 *275:3 *275:4 1.4
1294 *275:2 *275:3 0.0171428
1295 *275:1 *275:2 0.0107142
1296 *633:RN *275:1 1.4
*END

*D_NET *276 0.000156987

*CONN
*I *958:B1 I *C 71.1665 14.672 *L 0.00278 *D OAI33X1
*I *972:Y O *C 70.5245 15.547 *L 0 *D INVX1

*CAP
1 *276:1 1.46085e-06
2 *276:2 2.67823e-06
3 *276:3 1.21738e-06
4 *276:4 2.76072e-05
5 *276:5 2.76072e-05
6 *276:6 4.38256e-05
7 *276:7 4.82082e-05
8 *276:8 4.38256e-06

*RES
1 *276:8 *972:Y 1.4
2 *276:7 *276:8 0.0385705
3 *276:6 *276:7 0.385705
4 *276:5 *276:6 1.4
5 *276:4 *276:5 0.248567
6 *276:3 *276:4 1.4
7 *276:2 *276:3 0.010714
8 *276:1 *276:2 0.0128568
9 *958:B1 *276:1 1.4
*END

*D_NET *277 0.0436374

*CONN
*I *955:C0 I *C 16.386 11.5765 *L 0.00166 *D AOI222XL
*I *953:C0 I *C 14.196 17.4855 *L 0.00166 *D AOI222XL
*I *954:C0 I *C 16.125 33.082 *L 0.00166 *D AOI222XL
*I *950:C0 I *C 16.7185 61.468 *L 0.00166 *D AOI222XL
*I *952:C0 I *C 17.3515 40.6765 *L 0.00166 *D AOI222XL
*I *951:C0 I *C 17.449 52.952 *L 0.00166 *D AOI222XL
*I *949:C0 I *C 14.195 71.949 *L 0.00166 *D AOI222XL
*I *948:C0 I *C 13.3085 87.035 *L 0.00166 *D AOI222XL
*I *947:C0 I *C 18.1695 90.7625 *L 0.00166 *D AOI222XL
*I *946:C0 I *C 35.0345 89.358 *L 0.00166 *D AOI222XL
*I *945:C0 I *C 43.099 87.2795 *L 0.00166 *D AOI222XL
*I *944:C0 I *C 51.619 87.228 *L 0.00166 *D AOI222XL
*I *943:C0 I *C 64.488 86.862 *L 0.00166 *D AOI222XL
*I *957:C0 I *C 70.6885 87.893 *L 0.00166 *D AOI222XL
*I *910:C0 I *C 81.2075 90.2085 *L 0.00166 *D AOI222XL
*I *924:C0 I *C 96.0135 90.4965 *L 0.00166 *D AOI222XL
*I *922:C0 I *C 96.709 66.9675 *L 0.00166 *D AOI222XL
*I *923:C0 I *C 98.933 85.65 *L 0.00166 *D AOI222XL
*I *921:C0 I *C 94.8635 59.352 *L 0.00166 *D AOI222XL
*I *920:C0 I *C 95.9525 46.463 *L 0.00166 *D AOI222XL
*I *919:C0 I *C 96.0415 34.7125 *L 0.00166 *D AOI222XL
*I *918:C0 I *C 81.5365 32.7265 *L 0.00166 *D AOI222XL
*I *971:Y O *C 71.013 13.392 *L 0 *D NOR2X1
*I *917:C0 I *C 69.191 35.998 *L 0.00166 *D AOI222XL
*I *916:C0 I *C 70.1185 45.61 *L 0.00166 *D AOI222XL
*I *915:C0 I *C 68.78 61.174 *L 0.00166 *D AOI222XL
*I *914:C0 I *C 48.538 62.4545 *L 0.00166 *D AOI222XL
*I *913:C0 I *C 43.507 60.021 *L 0.00166 *D AOI222XL
*I *912:C0 I *C 43.286 43.1065 *L 0.00166 *D AOI222XL
*I *925:C0 I *C 46.4325 35.738 *L 0.00166 *D AOI222XL
*I *911:C0 I *C 48.953 21.5995 *L 0.00166 *D AOI222XL
*I *942:C0 I *C 47.668 11.659 *L 0.00166 *D AOI222XL
*I *956:C0 I *C 38.01 10.9965 *L 0.00166 *D AOI222XL

*CAP
1 *277:3 0.000318486
2 *277:4 0.000318486
3 *277:5 0.000140919
4 *277:6 1.56577e-05
5 *277:7 0.000125261
6 *277:8 0.000789575
7 *277:9 1.78067e-05
8 *277:10 0.00118125
9 *277:11 2.44207e-05
10 *277:12 0.00102554
11 *277:13 2.962e-05
12 *277:14 6.61393e-06
13 *277:15 0.00109132
14 *277:16 2.962e-05
15 *277:17 2.962e-05
16 *277:19 0.000993602
17 *277:20 4.66575e-05
18 *277:21 2.962e-05
19 *277:22 6.49335e-06
20 *277:23 0.000536149
21 *277:25 4.66575e-05
22 *277:26 3.63628e-06
23 *277:27 8.05175e-06
24 *277:28 0.000139973
25 *277:29 2.40906e-06
26 *277:30 1.33836e-06
27 *277:31 8.57122e-06
28 *277:32 1.5584e-06
29 *277:33 0.000139973
30 *277:34 2.40906e-06
31 *277:35 6.42415e-06
32 *277:36 4.93495e-06
33 *277:38 2.48936e-05
34 *277:40 5.08579e-06
35 *277:42 0.000837382
36 *277:44 0.00098871
37 *277:45 6.9595e-06
38 *277:46 0.000183181
39 *277:47 4.60891e-05
40 *277:49 0.000215082
41 *277:50 4.60891e-05
42 *277:51 0.00112319
43 *277:52 5.79019e-06
44 *277:53 0.000908109
45 *277:54 7.36934e-06
46 *277:55 1.18436e-05
47 *277:56 5.99353e-05
48 *277:57 9.73805e-06
49 *277:58 6.05339e-06
50 *277:59 0.000179806
51 *277:60 2.36872e-06
52 *277:62 1.64619e-05
53 *277:63 0.000119871
54 *277:65 1.64619e-05
55 *277:66 0.000477395
56 *277:67 5.42518e-06
57 *277:68 0.00095479
58 *277:69 1.00753e-05
59 *277:70 0.00121424
60 *277:71 6.97523e-06
61 *277:72 4.65015e-06
62 *277:73 0.0010806
63 *277:74 4.39181e-06
64 *277:75 8.78362e-06
65 *277:77 0.000343753
66 *277:78 1.4748e-05
67 *277:79 1.18837e-05
68 *277:80 1.80839e-06
69 *277:81 3.88105e-05
70 *277:82 1.65591e-05
71 *277:83 7.49191e-06
72 *277:85 0.000168955
73 *277:86 1.81115e-06
74 *277:88 0.000126263
75 *277:89 3.88105e-06
76 *277:91 0.000602846
77 *277:93 0.00142401
78 *277:94 0.000853363
79 *277:95 6.64784e-06
80 *277:96 3.22024e-05
81 *277:97 8.50924e-06
82 *277:98 1.38275e-05
83 *277:99 0.000246768
84 *277:100 1.48912e-05
85 *277:101 7.17967e-06
86 *277:102 0.00123557
87 *277:103 6.38193e-06
88 *277:105 0.00012881
89 *277:106 0.00142242
90 *277:108 0.00012881
91 *277:109 2.62803e-07
92 *277:110 0.000433362
93 *277:111 2.39322e-06
94 *277:113 4.43422e-05
95 *277:114 7.7115e-06
96 *277:115 8.86843e-05
97 *277:116 5.31827e-06
98 *277:117 0.000640862
99 *277:118 4.43422e-05
100 *277:120 0.00125433
101 *277:121 3.28504e-05
102 *277:123 0.00061347
103 *277:124 3.8632e-05
104 *277:125 5.71395e-06
105 *277:126 0.000676874
106 *277:127 5.78166e-06
107 *277:128 5.71395e-06
108 *277:129 1.53835e-05
109 *277:130 0.000753791
110 *277:133 3.1167e-06
111 *277:134 3.01281e-05
112 *277:135 9.2301e-05
113 *277:136 8.05147e-06
114 *277:137 3.01281e-05
115 *277:138 0.000100254
116 *277:139 4.93477e-06
117 *277:140 0.00062573
118 *277:141 0.000105448
119 *277:143 0.00062573
120 *277:144 5.1945e-06
121 *277:145 2.9183e-05
122 *277:147 0.00107855
123 *277:148 8.38867e-05
124 *277:149 0.00104936
125 *277:150 8.38867e-05
126 *277:152 6.76744e-05
127 *277:153 5.35646e-06
128 *277:154 0.000554477
129 *277:155 5.35646e-06
130 *277:156 0.00123537
131 *277:159 0.000748565
132 *277:160 4.19433e-05
133 *277:161 1.25789e-06
134 *277:162 1.45776e-05
135 *277:163 4.19433e-05
136 *277:164 1.25789e-06
137 *277:165 0.00102857
138 *277:166 3.27051e-06
139 *277:168 6.17675e-06
140 *277:169 0.00107024
141 *277:170 7.54733e-06
142 *277:171 6.17675e-06
143 *277:172 6.79711e-05
144 *277:173 5.62495e-05
145 *277:174 4.27682e-06
146 *277:176 6.79711e-05
147 *277:177 5.59195e-05
148 *277:179 4.51378e-06
149 *277:181 5.59195e-05
150 *277:182 4.51378e-06
151 *277:183 1.68723e-06
152 *277:184 0.000182811
153 *277:186 1.68723e-06
154 *277:187 0.000196873
155 *277:189 6.50787e-06
156 *277:190 1.40624e-05
157 *277:191 6.50787e-06
158 *277:192 0.00082778
159 *277:194 0.000829792
160 *277:195 6.74891e-06
161 *277:197 2.01127e-06
162 *277:198 6.74891e-06
163 *277:199 3.51973e-06
164 *277:200 0.000151731
165 *277:202 3.51973e-06
166 *277:203 0.000151731
167 *277:205 0.00042287
168 *277:206 0.00042287
169 *277:207 0.00011035
170 *277:208 0.00011035
171 *277:209 5.45558e-05
172 *277:210 0.000667653
173 *277:211 6.00868e-05
174 *277:212 0.000667653
175 *277:213 5.531e-06
176 *277:216 0.000524858
177 *277:217 4.74984e-06
178 *277:218 0.000520108
179 *277:220 6.51647e-05
180 *277:221 0.000602773
181 *277:222 4.48596e-06
182 *277:223 0.000537609
183 *277:224 6.33313e-06
184 *277:225 3.9582e-05
185 *277:226 1.84716e-06
186 *277:227 4.6179e-05
187 *277:229 6.59701e-06

*RES
1 *277:229 *956:C0 1.4
2 *277:227 *277:229 0.0535705
3 *277:226 *942:C0 1.4
4 *277:225 *277:227 0.321423
5 *277:224 *277:226 0.0149997
6 *277:223 *277:225 1.4
7 *277:222 *277:224 0.0364279
8 *277:221 *277:223 4.10133
9 *277:221 *277:222 1.4
10 *277:220 *277:221 0.497131
11 *277:218 *277:220 1.4
12 *277:217 *911:C0 1.4
13 *277:216 *277:218 4.2235
14 *277:216 *277:217 0.0385707
15 *277:214 *277:216 1.4
16 *277:213 *925:C0 1.4
17 *277:212 *277:214 1.4
18 *277:211 *277:213 0.047144
19 *277:210 *277:212 5.59505
20 *277:209 *277:211 0.465011
21 *277:208 *277:210 1.4
22 *277:207 *277:209 1.4
23 *277:207 *277:208 0.994261
24 *277:206 *277:207 1.4
25 *277:205 *277:206 3.60437
26 *277:203 *277:205 1.4
27 *277:202 *912:C0 1.4
28 *277:200 *277:203 1.36711
29 *277:199 *277:202 0.0300007
30 *277:198 *913:C0 1.4
31 *277:197 *277:200 1.4
32 *277:196 *277:199 1.4
33 *277:195 *277:198 0.0599985
34 *277:194 *277:197 0.0171433
35 *277:194 *277:196 1.4
36 *277:193 *277:195 1.4
37 *277:192 *277:194 7.19144
38 *277:191 *277:193 1.4
39 *277:190 *277:192 1.4
40 *277:189 *277:191 0.0578557
41 *277:187 *277:190 0.124283
42 *277:187 *277:189 1.4
43 *277:186 *914:C0 1.4
44 *277:184 *277:187 1.61567
45 *277:183 *277:186 0.0149996
46 *277:182 *915:C0 1.4
47 *277:181 *277:184 1.4
48 *277:180 *277:183 1.4
49 *277:179 *277:182 0.0407141
50 *277:177 *277:181 0.497131
51 *277:176 *277:180 1.4
52 *277:175 *277:179 1.4
53 *277:174 *916:C0 1.4
54 *277:173 *277:177 1.4
55 *277:172 *277:176 0.604271
56 *277:171 *277:175 1.4
57 *277:170 *277:174 0.0364277
58 *277:169 *277:173 0.497131
59 *277:169 *277:172 1.4
60 *277:168 *277:171 0.0557141
61 *277:166 *277:170 0.0278565
62 *277:165 *277:169 8.70014
63 *277:165 *277:168 1.4
64 *277:164 *917:C0 1.4
65 *277:163 *277:166 1.4
66 *277:162 *277:165 0.124289
67 *277:161 *277:164 0.010714
68 *277:160 *277:163 0.372848
69 *277:159 *277:162 1.4
70 *277:157 *277:161 1.4
71 *277:156 *277:160 1.4
72 *277:156 *277:159 6.58706
73 *277:155 *971:Y 1.4
74 *277:154 *277:157 1.4
75 *277:154 *277:156 4.14633
76 *277:153 *277:155 0.0471417
77 *277:152 *277:154 0.576414
78 *277:151 *277:153 1.4
79 *277:150 *277:152 1.4
80 *277:149 *277:151 1.4
81 *277:148 *277:150 0.745696
82 *277:147 *277:149 9.11335
83 *277:147 *277:148 1.4
84 *277:145 *277:147 0.248565
85 *277:144 *918:C0 1.4
86 *277:143 *277:145 1.4
87 *277:141 *277:144 0.0428561
88 *277:140 *277:143 5.34424
89 *277:139 *919:C0 1.4
90 *277:138 *277:141 0.827123
91 *277:137 *277:140 1.4
92 *277:136 *277:139 0.0407133
93 *277:135 *277:138 1.4
94 *277:134 *277:137 0.248565
95 *277:133 *277:136 0.0257137
96 *277:130 *277:135 0.745726
97 *277:130 *277:134 1.4
98 *277:129 *277:133 1.4
99 *277:128 *920:C0 1.4
100 *277:127 *921:C0 1.4
101 *277:126 *277:130 5.34437
102 *277:126 *277:129 0.124288
103 *277:125 *277:128 0.0471417
104 *277:124 *277:127 0.0471435
105 *277:123 *277:126 1.4
106 *277:122 *277:125 1.4
107 *277:121 *277:124 0.267861
108 *277:120 *277:123 5.0613
109 *277:120 *277:122 1.4
110 *277:118 *277:121 1.4
111 *277:117 *277:120 5.25426
112 *277:116 *923:C0 1.4
113 *277:115 *277:118 0.37285
114 *277:115 *277:117 1.4
115 *277:114 *277:116 0.0428582
116 *277:113 *277:115 0.37285
117 *277:111 *277:114 0.0192862
118 *277:110 *277:113 1.4
119 *277:109 *922:C0 1.4
120 *277:108 *277:111 1.4
121 *277:106 *277:110 3.53362
122 *277:106 *277:109 0.00214289
123 *277:105 *277:108 0.994264
124 *277:103 *924:C0 1.4
125 *277:102 *277:106 8.02514
126 *277:102 *277:105 1.4
127 *277:101 *910:C0 1.4
128 *277:100 *277:103 0.0514298
129 *277:99 *277:102 1.98862
130 *277:98 *277:101 0.0578586
131 *277:97 *277:100 0.0685731
132 *277:96 *277:99 1.4
133 *277:95 *277:98 0.0535727
134 *277:94 *277:97 1.4
135 *277:94 *277:96 0.248566
136 *277:93 *277:95 1.4
137 *277:93 *277:94 6.33843
138 *277:91 *277:93 4.59847
139 *277:89 *957:C0 1.4
140 *277:88 *277:91 1.4
141 *277:86 *943:C0 1.4
142 *277:85 *277:89 0.0321423
143 *277:85 *277:88 1.0457
144 *277:83 *944:C0 1.4
145 *277:82 *277:86 0.0149997
146 *277:81 *277:85 0.321423
147 *277:80 *945:C0 1.4
148 *277:79 *277:83 0.0621444
149 *277:78 *277:82 0.122141
150 *277:77 *277:81 1.4
151 *277:75 *277:80 0.0150004
152 *277:74 *277:79 0.0364295
153 *277:73 *277:78 1.4
154 *277:73 *277:77 2.60994
155 *277:72 *946:C0 1.4
156 *277:71 *277:75 0.0578586
157 *277:70 *277:74 1.4
158 *277:70 *277:73 5.59275
159 *277:69 *277:72 0.0385724
160 *277:68 *277:71 1.4
161 *277:68 *277:70 3.60437
162 *277:67 *277:69 0.0450011
163 *277:66 *277:68 3.60437
164 *277:65 *277:67 1.4
165 *277:63 *277:66 1.4
166 *277:62 *277:65 0.124289
167 *277:60 *947:C0 1.4
168 *277:59 *277:63 0.99431
169 *277:59 *277:62 1.4
170 *277:58 *948:C0 1.4
171 *277:57 *277:60 0.0192861
172 *277:56 *277:59 0.497155
173 *277:55 *277:58 0.0492868
174 *277:54 *277:57 0.0600013
175 *277:53 *277:56 1.4
176 *277:52 *277:55 0.0471439
177 *277:51 *277:54 1.4
178 *277:51 *277:53 7.0843
179 *277:50 *277:52 1.4
180 *277:49 *277:51 1.73996
181 *277:47 *277:50 0.372849
182 *277:46 *277:49 1.4
183 *277:45 *949:C0 1.4
184 *277:44 *277:47 1.4
185 *277:44 *277:46 1.49146
186 *277:42 *277:45 0.0557134
187 *277:42 *277:44 6.51218
188 *277:40 *951:C0 1.4
189 *277:38 *277:42 0.199283
190 *277:36 *952:C0 1.4
191 *277:35 *277:40 0.0407136
192 *277:34 *950:C0 1.4
193 *277:33 *277:38 1.4
194 *277:32 *954:C0 1.4
195 *277:31 *277:36 0.0407133
196 *277:30 *277:35 0.0107141
197 *277:29 *277:34 0.0192854
198 *277:28 *277:33 1.11855
199 *277:27 *277:32 0.0128568
200 *277:26 *277:31 0.0299993
201 *277:25 *277:30 1.4
202 *277:24 *277:29 1.4
203 *277:23 *277:28 1.4
204 *277:22 *277:27 0.0535701
205 *277:21 *277:26 1.4
206 *277:20 *277:25 0.372849
207 *277:19 *277:24 1.4
208 *277:19 *277:23 4.29208
209 *277:17 *277:22 1.4
210 *277:16 *277:21 0.248566
211 *277:15 *277:20 1.4
212 *277:15 *277:19 3.66209
213 *277:14 *953:C0 1.4
214 *277:13 *277:17 0.248566
215 *277:12 *277:16 1.4
216 *277:12 *277:15 5.21988
217 *277:11 *277:14 0.0557135
218 *277:10 *277:13 1.4
219 *277:10 *277:12 3.23135
220 *277:9 *277:11 0.149998
221 *277:8 *277:10 6.58702
222 *277:7 *277:9 1.4
223 *277:6 *277:8 1.4
224 *277:5 *277:7 0.99431
225 *277:5 *277:6 0.124289
226 *277:4 *277:5 1.4
227 *277:3 *277:4 2.68282
228 *277:2 *277:3 1.4
229 *277:1 *277:2 1.4
230 *955:C0 *277:1 1.4
*END

*D_NET *278 0.000123686

*CONN
*I *961:B0 I *C 70.3545 14.975 *L 0.00178 *D OA22XL
*I *963:AN I *C 70.259 14.6055 *L 0.00174 *D NOR2BX1
*I *970:Y O *C 70.1835 13.9385 *L 0 *D NAND2XL

*CAP
1 *278:1 1.46085e-06
2 *278:2 1.94781e-05
3 *278:3 5.35646e-05
4 *278:4 3.16518e-06
5 *278:5 3.91996e-05
6 *278:7 6.81732e-06

*RES
1 *278:7 *970:Y 1.4
2 *278:5 *278:7 0.0599985
3 *278:4 *963:AN 1.4
4 *278:3 *278:5 0.284993
5 *278:3 *278:4 0.0278565
6 *278:2 *278:3 0.158568
7 *278:1 *278:2 0.0128568
8 *961:B0 *278:1 1.4
*END

*D_NET *279 0.000302923

*CONN
*I *961:A0 I *C 69.1945 14.685 *L 0.00166 *D OA22XL
*I *969:Y O *C 70.117 16.559 *L 0 *D NAND2XL
*I *960:A0 I *C 69.9125 14.5675 *L 0.00263 *D AOI211X1

*CAP
1 *279:1 1.46085e-06
2 *279:2 3.40866e-06
3 *279:3 1.94781e-06
4 *279:4 4.14108e-05
5 *279:5 4.14108e-05
6 *279:6 9.69033e-05
7 *279:7 9.32512e-05
8 *279:8 3.65213e-06
9 *279:11 3.89561e-06
10 *279:12 5.84342e-06
11 *279:13 3.89561e-06
12 *279:14 5.84342e-06

*RES
1 *279:14 *960:A0 1.4
2 *279:13 *969:Y 1.4
3 *279:12 *279:14 0.0514273
4 *279:11 *279:13 0.0342849
5 *279:10 *279:12 1.4
6 *279:9 *279:11 1.4
7 *279:8 *279:10 1.4
8 *279:7 *279:9 1.4
9 *279:6 *279:8 0.0321421
10 *279:6 *279:7 0.820694
11 *279:5 *279:6 1.4
12 *279:4 *279:5 0.372851
13 *279:3 *279:4 1.4
14 *279:2 *279:3 0.0171424
15 *279:1 *279:2 0.0128568
16 *961:A0 *279:1 1.4
*END

*D_NET *280 0.000162344

*CONN
*I *964:B I *C 73.5345 12.812 *L 0.00172 *D AND2X1
*I *968:Y O *C 74.1205 11.947 *L 0 *D NOR3X1

*CAP
1 *280:1 9.73903e-07
2 *280:2 5.59994e-06
3 *280:3 4.62604e-06
4 *280:4 2.76072e-05
5 *280:5 2.76072e-05
6 *280:6 4.67473e-05
7 *280:7 4.79647e-05
8 *280:8 1.21738e-06

*RES
1 *280:8 *968:Y 1.4
2 *280:7 *280:8 0.010714
3 *280:6 *280:7 0.411418
4 *280:5 *280:6 1.4
5 *280:4 *280:5 0.248567
6 *280:3 *280:4 1.4
7 *280:2 *280:3 0.0407133
8 *280:1 *280:2 0.00857122
9 *964:B *280:1 1.4
*END

*D_NET *281 4.57734e-05

*CONN
*I *893:A I *C 70.6345 15.197 *L 0.00177 *D OR3X1
*I *967:Y O *C 70.718 14.8505 *L 0 *D NOR3X1

*CAP
1 *281:1 9.73903e-07
2 *281:2 1.77737e-05
3 *281:3 2.19128e-05
4 *281:4 5.11299e-06

*RES
1 *281:4 *967:Y 1.4
2 *281:3 *281:4 0.0449989
3 *281:2 *281:3 0.147854
4 *281:1 *281:2 0.00857122
5 *893:A *281:1 1.4
*END

*D_NET *282 0.000718223

*CONN
*I *960:A1 I *C 70.2575 14.58 *L 0.00279 *D AOI211X1
*I *961:B1 I *C 69.7745 14.975 *L 0.00174 *D OA22XL
*I *962:C I *C 69.773 14.5355 *L 0.00291 *D NOR3BX1
*I *966:Y O *C 71.614 17.8225 *L 0 *D OA21X1

*CAP
1 *282:1 3.16518e-06
2 *282:2 6.33037e-06
3 *282:3 3.16518e-06
4 *282:4 2.76072e-05
5 *282:5 4.14107e-05
6 *282:6 2.14259e-05
7 *282:7 1.38036e-05
8 *282:8 1.75302e-05
9 *282:9 6.81732e-06
10 *282:10 0.000169459
11 *282:11 1.46085e-06
12 *282:12 1.46085e-06
13 *282:13 0.000169459
14 *282:16 9.66251e-05
15 *282:17 9.66251e-05
16 *282:18 1.46085e-05
17 *282:19 2.09389e-05
18 *282:20 6.33037e-06

*RES
1 *282:20 *966:Y 1.4
2 *282:19 *282:20 0.0557129
3 *282:18 *282:19 0.128568
4 *282:17 *282:18 1.4
5 *282:16 *282:17 0.869986
6 *282:13 *282:16 1.4
7 *282:12 *962:C 1.4
8 *282:11 *961:B1 1.4
9 *282:10 *282:13 1.49139
10 *282:9 *282:12 0.0128568
11 *282:8 *282:11 0.0128568
12 *282:7 *282:10 1.4
13 *282:6 *282:9 0.0471417
14 *282:6 *282:8 0.141425
15 *282:5 *282:7 0.124284
16 *282:5 *282:6 1.4
17 *282:4 *282:5 0.248567
18 *282:3 *282:4 1.4
19 *282:2 *282:3 0.0278565
20 *282:1 *282:2 0.0278565
21 *960:A1 *282:1 1.4
*END

*D_NET *283 0.000264643

*CONN
*I *963:B I *C 69.679 14.3155 *L 0.0028 *D NOR2BX1
*I *962:AN I *C 70.933 14.5355 *L 0.0018 *D NOR3BX1
*I *965:Y O *C 71.254 13.64 *L 0 *D OAI21X1

*CAP
1 *283:1 3.16518e-06
2 *283:2 1.5339e-05
3 *283:3 1.21738e-05
4 *283:4 5.52143e-05
5 *283:5 6.90179e-05
6 *283:6 1.38036e-05
7 *283:7 2.28867e-05
8 *283:8 2.06954e-05
9 *283:9 2.43476e-05
10 *283:10 2.36171e-05
11 *283:11 1.46085e-06
12 *283:12 2.92171e-06

*RES
1 *283:12 *965:Y 1.4
2 *283:11 *962:AN 1.4
3 *283:10 *283:12 0.0257137
4 *283:9 *283:11 0.0128568
5 *283:8 *283:10 0.182138
6 *283:7 *283:9 0.201424
7 *283:6 *283:8 1.4
8 *283:5 *283:7 1.4
9 *283:5 *283:6 0.124284
10 *283:4 *283:5 0.497135
11 *283:3 *283:4 1.4
12 *283:2 *283:3 0.10714
13 *283:1 *283:2 0.0278565
14 *963:B *283:1 1.4
*END

*D_NET *284 0.0437687

*CONN
*I *955:A1 I *C 14.936 11.8665 *L 0.00162 *D AOI222XL
*I *953:A1 I *C 12.746 17.7755 *L 0.00162 *D AOI222XL
*I *954:A1 I *C 14.675 33.372 *L 0.00162 *D AOI222XL
*I *952:A1 I *C 15.9015 40.9665 *L 0.00162 *D AOI222XL
*I *951:A1 I *C 15.999 53.242 *L 0.00162 *D AOI222XL
*I *950:A1 I *C 15.2685 61.758 *L 0.00162 *D AOI222XL
*I *949:A1 I *C 12.745 72.239 *L 0.00162 *D AOI222XL
*I *948:A1 I *C 11.8585 87.325 *L 0.00162 *D AOI222XL
*I *947:A1 I *C 16.7195 91.0525 *L 0.00162 *D AOI222XL
*I *946:A1 I *C 33.5845 89.648 *L 0.00162 *D AOI222XL
*I *945:A1 I *C 41.649 87.5695 *L 0.00162 *D AOI222XL
*I *944:A1 I *C 50.169 87.518 *L 0.00162 *D AOI222XL
*I *943:A1 I *C 63.038 87.152 *L 0.00162 *D AOI222XL
*I *957:A1 I *C 69.2385 88.183 *L 0.00162 *D AOI222XL
*I *910:A1 I *C 79.7575 90.4985 *L 0.00162 *D AOI222XL
*I *924:A1 I *C 94.5635 90.7865 *L 0.00162 *D AOI222XL
*I *923:A1 I *C 97.483 85.94 *L 0.00162 *D AOI222XL
*I *922:A1 I *C 95.259 67.2575 *L 0.00162 *D AOI222XL
*I *921:A1 I *C 93.4135 59.642 *L 0.00162 *D AOI222XL
*I *919:A1 I *C 94.5915 35.0025 *L 0.00162 *D AOI222XL
*I *920:A1 I *C 94.5025 46.753 *L 0.00162 *D AOI222XL
*I *918:A1 I *C 80.0865 33.0165 *L 0.00162 *D AOI222XL
*I *964:Y O *C 74.6945 12.232 *L 0 *D AND2X1
*I *917:A1 I *C 67.741 36.288 *L 0.00162 *D AOI222XL
*I *916:A1 I *C 68.6685 45.9 *L 0.00162 *D AOI222XL
*I *915:A1 I *C 67.33 61.464 *L 0.00162 *D AOI222XL
*I *914:A1 I *C 47.088 62.7445 *L 0.00162 *D AOI222XL
*I *913:A1 I *C 42.057 60.311 *L 0.00162 *D AOI222XL
*I *912:A1 I *C 41.836 43.3965 *L 0.00162 *D AOI222XL
*I *925:A1 I *C 44.9825 36.028 *L 0.00162 *D AOI222XL
*I *911:A1 I *C 47.503 21.8895 *L 0.00162 *D AOI222XL
*I *942:A1 I *C 46.218 11.949 *L 0.00162 *D AOI222XL
*I *956:A1 I *C 36.56 11.2865 *L 0.00162 *D AOI222XL

*CAP
1 *284:3 0.000318486
2 *284:4 0.000318486
3 *284:5 1.56577e-05
4 *284:6 0.000125261
5 *284:7 0.000783392
6 *284:8 0.000109604
7 *284:9 0.00113637
8 *284:10 1.78067e-05
9 *284:11 0.000352979
10 *284:13 2.44207e-05
11 *284:14 5.92401e-05
12 *284:15 1.5584e-06
13 *284:16 6.61393e-06
14 *284:17 5.92401e-05
15 *284:18 1.5584e-06
16 *284:20 0.000663992
17 *284:21 4.15574e-05
18 *284:23 0.000663992
19 *284:24 4.64924e-05
20 *284:25 4.66575e-05
21 *284:26 4.93495e-06
22 *284:27 1.55525e-05
23 *284:28 3.1105e-05
24 *284:30 1.68634e-05
25 *284:31 0.000434701
26 *284:32 2.19492e-05
27 *284:33 0.000472978
28 *284:34 5.08579e-06
29 *284:35 4.06863e-05
30 *284:36 0.000139973
31 *284:38 2.40906e-06
32 *284:39 0.000139973
33 *284:41 0.00059932
34 *284:42 0.00141155
35 *284:43 0.000927389
36 *284:44 6.9595e-06
37 *284:45 0.00012212
38 *284:46 4.60891e-05
39 *284:48 0.000215082
40 *284:49 4.60891e-05
41 *284:50 0.00113416
42 *284:51 5.79019e-06
43 *284:52 0.00124831
44 *284:53 6.84296e-05
45 *284:54 1.18436e-05
46 *284:55 0.000329238
47 *284:56 5.42518e-06
48 *284:57 7.07983e-05
49 *284:58 6.05339e-06
50 *284:59 0.000104887
51 *284:60 1.00753e-05
52 *284:61 2.36872e-06
53 *284:63 0.000104887
54 *284:64 4.65015e-06
55 *284:66 0.000131695
56 *284:68 0.00060909
57 *284:69 0.0012147
58 *284:70 8.0086e-06
59 *284:71 0.00108106
60 *284:72 1.0592e-05
61 *284:73 9.81699e-06
62 *284:74 0.000867432
63 *284:75 2.97547e-05
64 *284:76 1.80839e-05
65 *284:77 1.80839e-06
66 *284:78 0.00052368
67 *284:79 2.38038e-05
68 *284:80 3.15658e-05
69 *284:81 7.49191e-06
70 *284:83 0.00015423
71 *284:84 2.76848e-05
72 *284:85 1.81115e-06
73 *284:87 0.00015423
74 *284:88 3.88105e-06
75 *284:90 0.000901667
76 *284:91 8.0506e-05
77 *284:93 0.000901667
78 *284:94 8.0506e-05
79 *284:95 0.000301546
80 *284:96 6.64784e-06
81 *284:97 8.50924e-06
82 *284:98 0.000293037
83 *284:99 1.38275e-05
84 *284:101 3.22024e-05
85 *284:102 7.17967e-06
86 *284:103 6.38193e-06
87 *284:104 0.000161012
88 *284:106 6.38193e-06
89 *284:107 0.00012881
90 *284:108 0.000942709
91 *284:110 4.38758e-05
92 *284:111 0.00143704
93 *284:112 4.9194e-05
94 *284:114 0.000494332
95 *284:115 5.31827e-06
96 *284:116 2.62803e-07
97 *284:117 2.95614e-05
98 *284:119 2.62803e-07
99 *284:120 8.86843e-05
100 *284:122 0.000575915
101 *284:123 5.91229e-05
102 *284:124 0.00119042
103 *284:125 9.38206e-05
104 *284:126 1.53835e-05
105 *284:127 0.000723074
106 *284:128 9.96023e-05
107 *284:129 1.53835e-05
108 *284:131 0.000108565
109 *284:132 5.78166e-06
110 *284:133 4.1556e-06
111 *284:134 4.93477e-06
112 *284:135 0.000769175
113 *284:137 9.86955e-06
114 *284:138 4.93477e-06
115 *284:139 0.00104393
116 *284:140 5.71395e-06
117 *284:142 5.1945e-06
118 *284:143 0.000274757
119 *284:145 5.1945e-06
120 *284:146 0.00106208
121 *284:148 4.37745e-05
122 *284:149 0.0010183
123 *284:150 5.1945e-06
124 *284:151 0.000335547
125 *284:153 5.1945e-06
126 *284:154 0.000335547
127 *284:155 9.73903e-07
128 *284:157 0.00012604
129 *284:158 9.73903e-07
130 *284:159 0.000612843
131 *284:161 0.000486803
132 *284:163 5.59244e-05
133 *284:164 1.25789e-06
134 *284:165 4.19433e-05
135 *284:166 1.39811e-05
136 *284:167 1.25789e-06
137 *284:168 3.27051e-06
138 *284:169 0.000692637
139 *284:171 7.54733e-06
140 *284:172 0.00075393
141 *284:173 4.27682e-06
142 *284:174 6.12924e-05
143 *284:175 0.00101142
144 *284:178 0.00101142
145 *284:179 4.51378e-06
146 *284:180 1.39799e-05
147 *284:181 4.51378e-06
148 *284:182 0.000123891
149 *284:184 0.000109911
150 *284:185 0.00023906
151 *284:187 0.00023906
152 *284:188 1.68723e-06
153 *284:189 7.472e-06
154 *284:190 1.68723e-06
155 *284:191 0.00084317
156 *284:194 0.00118566
157 *284:195 6.74891e-06
158 *284:196 1.37937e-05
159 *284:197 0.000349962
160 *284:198 6.74891e-06
161 *284:199 1.37937e-05
162 *284:200 0.000137937
163 *284:202 2.01127e-06
164 *284:203 0.000193112
165 *284:204 5.531e-06
166 *284:205 5.51748e-05
167 *284:206 1.83529e-05
168 *284:207 3.51973e-06
169 *284:208 0.000770185
170 *284:209 2.38839e-05
171 *284:211 0.000770185
172 *284:212 5.531e-06
173 *284:213 6.51647e-05
174 *284:215 6.51647e-05
175 *284:216 0.000494248
176 *284:217 3.03462e-05
177 *284:218 0.000535677
178 *284:219 3.50961e-05
179 *284:221 4.14292e-05
180 *284:222 4.74984e-06
181 *284:223 1.84716e-06
182 *284:224 0.000537609
183 *284:226 1.84716e-06
184 *284:227 0.000537609
185 *284:229 6.33313e-06
186 *284:230 6.33313e-06
187 *284:232 6.59701e-06
188 *284:233 6.59701e-06

*RES
1 *284:233 *956:A1 1.4
2 *284:232 *284:233 0.0535705
3 *284:231 *284:232 1.4
4 *284:230 *284:231 1.4
5 *284:229 *284:230 0.0514276
6 *284:227 *284:229 1.4
7 *284:226 *942:A1 1.4
8 *284:224 *284:227 4.10133
9 *284:223 *284:226 0.0149997
10 *284:222 *911:A1 1.4
11 *284:221 *284:224 1.4
12 *284:220 *284:223 1.4
13 *284:219 *284:222 0.0385707
14 *284:218 *284:221 0.336422
15 *284:218 *284:220 1.4
16 *284:217 *284:219 0.246424
17 *284:216 *284:218 4.0135
18 *284:215 *284:217 1.4
19 *284:213 *284:216 1.4
20 *284:213 *284:215 0.497131
21 *284:212 *925:A1 1.4
22 *284:211 *284:213 1.4
23 *284:209 *284:212 0.047144
24 *284:208 *284:211 6.46293
25 *284:207 *912:A1 1.4
26 *284:206 *284:209 0.156432
27 *284:205 *284:208 1.4
28 *284:204 *284:207 0.0300007
29 *284:203 *284:206 1.4
30 *284:203 *284:205 0.497131
31 *284:202 *284:204 0.0171433
32 *284:200 *284:203 1.24283
33 *284:199 *284:202 1.4
34 *284:198 *913:A1 1.4
35 *284:197 *284:200 1.4
36 *284:196 *284:199 0.124283
37 *284:195 *284:198 0.0599985
38 *284:194 *284:197 2.98293
39 *284:194 *284:196 1.4
40 *284:193 *284:195 1.4
41 *284:191 *284:194 7.26644
42 *284:191 *284:193 1.4
43 *284:190 *914:A1 1.4
44 *284:189 *284:191 0.0664269
45 *284:188 *284:190 0.0149996
46 *284:187 *284:189 1.4
47 *284:186 *284:188 1.4
48 *284:185 *284:187 2.11281
49 *284:184 *284:186 1.4
50 *284:182 *284:185 1.4
51 *284:182 *284:184 0.977119
52 *284:181 *915:A1 1.4
53 *284:180 *284:182 0.124283
54 *284:179 *284:181 0.0407141
55 *284:178 *284:180 1.4
56 *284:177 *284:179 1.4
57 *284:175 *284:178 8.70011
58 *284:174 *284:177 1.4
59 *284:173 *916:A1 1.4
60 *284:172 *284:175 1.4
61 *284:172 *284:174 0.552855
62 *284:171 *284:173 0.0364277
63 *284:169 *284:172 6.08992
64 *284:168 *284:171 0.0278565
65 *284:167 *917:A1 1.4
66 *284:166 *284:169 1.4
67 *284:165 *284:168 1.4
68 *284:164 *284:167 0.010714
69 *284:163 *284:166 0.124283
70 *284:163 *284:165 0.372848
71 *284:162 *284:164 1.4
72 *284:161 *284:163 1.4
73 *284:159 *284:162 1.4
74 *284:159 *284:161 4.14633
75 *284:158 *964:Y 1.4
76 *284:157 *284:159 1.07355
77 *284:155 *284:158 0.00857122
78 *284:154 *284:157 1.4
79 *284:153 *918:A1 1.4
80 *284:152 *284:155 1.4
81 *284:151 *284:154 2.98278
82 *284:150 *284:153 0.0428561
83 *284:149 *284:152 1.4
84 *284:148 *284:151 1.4
85 *284:147 *284:150 1.4
86 *284:146 *284:149 8.86478
87 *284:146 *284:148 0.372848
88 *284:145 *284:147 1.4
89 *284:143 *284:146 1.4
90 *284:142 *284:145 0.0428561
91 *284:140 *920:A1 1.4
92 *284:139 *284:143 2.3614
93 *284:139 *284:142 1.4
94 *284:138 *919:A1 1.4
95 *284:137 *284:140 0.0471417
96 *284:135 *284:139 6.21439
97 *284:134 *284:138 0.0407133
98 *284:133 *284:137 0.0342849
99 *284:132 *921:A1 1.4
100 *284:131 *284:135 1.4
101 *284:130 *284:134 1.4
102 *284:129 *284:133 1.4
103 *284:128 *284:132 0.0471435
104 *284:127 *284:131 0.895692
105 *284:127 *284:130 1.4
106 *284:126 *284:129 0.124288
107 *284:125 *284:128 0.76501
108 *284:124 *284:127 5.06988
109 *284:124 *284:126 1.4
110 *284:123 *284:125 1.4
111 *284:122 *284:124 4.72283
112 *284:120 *284:123 0.497133
113 *284:120 *284:122 1.4
114 *284:119 *922:A1 1.4
115 *284:117 *284:120 0.248566
116 *284:116 *284:119 0.00214289
117 *284:115 *923:A1 1.4
118 *284:114 *284:117 1.4
119 *284:113 *284:116 1.4
120 *284:112 *284:115 0.0428582
121 *284:111 *284:114 4.03077
122 *284:111 *284:113 1.4
123 *284:110 *284:112 0.35358
124 *284:108 *284:111 7.65228
125 *284:107 *284:110 1.4
126 *284:106 *924:A1 1.4
127 *284:104 *284:108 1.4
128 *284:104 *284:107 0.994264
129 *284:103 *284:106 0.0514298
130 *284:102 *910:A1 1.4
131 *284:101 *284:104 0.248566
132 *284:100 *284:103 1.4
133 *284:99 *284:102 0.0578586
134 *284:98 *284:101 1.4
135 *284:97 *284:100 1.4
136 *284:96 *284:99 0.0535727
137 *284:95 *284:98 2.36149
138 *284:95 *284:97 0.0685731
139 *284:94 *284:96 1.4
140 *284:93 *284:95 1.4
141 *284:91 *284:94 0.621415
142 *284:90 *284:93 6.95985
143 *284:88 *957:A1 1.4
144 *284:87 *284:91 1.4
145 *284:87 *284:90 1.4
146 *284:85 *943:A1 1.4
147 *284:84 *284:88 0.0321423
148 *284:83 *284:87 1.24289
149 *284:81 *944:A1 1.4
150 *284:80 *284:85 0.0149997
151 *284:79 *284:84 0.197139
152 *284:78 *284:83 1.4
153 *284:77 *945:A1 1.4
154 *284:76 *284:81 0.0621444
155 *284:75 *284:80 0.246424
156 *284:74 *284:79 1.4
157 *284:74 *284:78 3.97706
158 *284:73 *284:77 0.0150004
159 *284:72 *284:76 0.0878593
160 *284:71 *284:75 1.4
161 *284:71 *284:74 2.60994
162 *284:70 *284:73 0.0664302
163 *284:69 *284:72 1.4
164 *284:69 *284:71 5.59278
165 *284:68 *284:70 1.4
166 *284:68 *284:69 3.60437
167 *284:66 *284:68 0.99431
168 *284:64 *946:A1 1.4
169 *284:63 *284:66 1.4
170 *284:61 *947:A1 1.4
171 *284:60 *284:64 0.0385724
172 *284:59 *284:63 0.870021
173 *284:58 *948:A1 1.4
174 *284:57 *284:61 0.0192861
175 *284:56 *284:60 0.0450011
176 *284:55 *284:59 1.4
177 *284:54 *284:58 0.0492868
178 *284:53 *284:57 0.557155
179 *284:52 *284:56 1.4
180 *284:52 *284:55 2.48577
181 *284:51 *284:54 0.0471439
182 *284:50 *284:53 1.4
183 *284:50 *284:52 7.20856
184 *284:49 *284:51 1.4
185 *284:48 *284:50 1.73996
186 *284:46 *284:49 0.372849
187 *284:45 *284:48 1.4
188 *284:44 *949:A1 1.4
189 *284:43 *284:46 1.4
190 *284:43 *284:45 0.994307
191 *284:42 *284:44 0.0557134
192 *284:42 *284:43 6.51219
193 *284:41 *284:42 4.79778
194 *284:39 *284:41 1.4
195 *284:38 *950:A1 1.4
196 *284:36 *284:39 1.11855
197 *284:35 *284:38 0.0192854
198 *284:34 *951:A1 1.4
199 *284:33 *284:36 1.4
200 *284:33 *284:35 0.306424
201 *284:32 *284:34 0.0407136
202 *284:31 *284:33 3.47995
203 *284:30 *284:32 0.134998
204 *284:28 *284:31 1.4
205 *284:27 *284:30 1.4
206 *284:26 *952:A1 1.4
207 *284:25 *284:28 0.248566
208 *284:25 *284:27 0.124283
209 *284:24 *284:26 0.0407133
210 *284:23 *284:25 1.4
211 *284:21 *284:24 0.342849
212 *284:20 *284:23 5.46844
213 *284:18 *954:A1 1.4
214 *284:17 *284:21 1.4
215 *284:17 *284:20 1.4
216 *284:16 *953:A1 1.4
217 *284:15 *284:18 0.0128568
218 *284:14 *284:17 0.497133
219 *284:13 *284:16 0.0557135
220 *284:12 *284:15 1.4
221 *284:11 *284:14 1.4
222 *284:10 *284:13 0.149998
223 *284:9 *284:12 1.4
224 *284:9 *284:11 2.91207
225 *284:8 *284:10 1.4
226 *284:7 *284:9 6.53345
227 *284:6 *284:8 0.870021
228 *284:6 *284:7 1.4
229 *284:5 *284:6 0.124289
230 *284:4 *284:5 1.4
231 *284:3 *284:4 2.68282
232 *284:2 *284:3 1.4
233 *284:1 *284:2 1.4
234 *955:A1 *284:1 1.4
*END

*D_NET *285 0.000279103

*CONN
*I *960:C0 I *C 71.1275 14.58 *L 0.00281 *D AOI211X1
*I *961:A1 I *C 69.4845 14.975 *L 0.0017 *D OA22XL
*I *963:Y O *C 69.399 14.3155 *L 0 *D NOR2BX1

*CAP
1 *285:1 3.16518e-06
2 *285:2 2.0452e-05
3 *285:3 1.72868e-05
4 *285:4 8.28215e-05
5 *285:5 8.28215e-05
6 *285:6 3.21388e-05
7 *285:7 3.40866e-06
8 *285:8 3.28692e-05
9 *285:9 1.46085e-06
10 *285:10 2.67823e-06

*RES
1 *285:10 *963:Y 1.4
2 *285:9 *961:A1 1.4
3 *285:8 *285:10 0.0235709
4 *285:7 *285:9 0.0128568
5 *285:6 *285:8 0.265708
6 *285:6 *285:7 0.0171424
7 *285:5 *285:6 1.4
8 *285:4 *285:5 0.745702
9 *285:3 *285:4 1.4
10 *285:2 *285:3 0.152139
11 *285:1 *285:2 0.0278565
12 *960:C0 *285:1 1.4
*END

*D_NET *286 0.000158448

*CONN
*I *893:B I *C 70.0545 15.197 *L 0.00173 *D OR3X1
*I *962:Y O *C 69.483 14.2455 *L 0 *D NOR3BX1

*CAP
1 *286:1 9.73903e-07
2 *286:2 2.43476e-06
3 *286:3 1.46085e-06
4 *286:4 2.76072e-05
5 *286:5 2.76072e-05
6 *286:6 4.77212e-05
7 *286:7 4.91821e-05
8 *286:8 1.46085e-06

*RES
1 *286:8 *962:Y 1.4
2 *286:7 *286:8 0.0128568
3 *286:6 *286:7 0.41999
4 *286:5 *286:6 1.4
5 *286:4 *286:5 0.248567
6 *286:3 *286:4 1.4
7 *286:2 *286:3 0.0128568
8 *286:1 *286:2 0.00857122
9 *893:B *286:1 1.4
*END

*D_NET *287 0.000152754

*CONN
*I *958:A2 I *C 70.5865 14.382 *L 0.00274 *D OAI33X1
*I *961:Y O *C 70.9345 15.555 *L 0 *D OA22XL

*CAP
1 *287:1 1.46085e-06
2 *287:2 2.67823e-06
3 *287:3 1.21738e-06
4 *287:4 1.38036e-05
5 *287:5 1.38036e-05
6 *287:6 5.84342e-05
7 *287:7 5.9895e-05
8 *287:8 1.46085e-06

*RES
1 *287:8 *961:Y 1.4
2 *287:7 *287:8 0.0128568
3 *287:6 *287:7 0.514273
4 *287:5 *287:6 1.4
5 *287:4 *287:5 0.124284
6 *287:3 *287:4 1.4
7 *287:2 *287:3 0.010714
8 *287:1 *287:2 0.0128568
9 *958:A2 *287:1 1.4
*END

*D_NET *288 0.000110091

*CONN
*I *959:AN I *C 71.591 14.399 *L 0.00174 *D NOR2BX1
*I *960:Y O *C 70.5475 14.29 *L 0 *D AOI211X1

*CAP
1 *288:1 5.11299e-06
2 *288:2 7.30427e-06
3 *288:3 2.19128e-06
4 *288:4 4.14108e-05
5 *288:5 4.14108e-05
6 *288:6 3.16518e-06
7 *288:7 6.33037e-06
8 *288:8 3.16518e-06

*RES
1 *288:8 *960:Y 1.4
2 *288:7 *288:8 0.0278565
3 *288:6 *288:7 0.0278565
4 *288:5 *288:6 1.4
5 *288:4 *288:5 0.372851
6 *288:3 *288:4 1.4
7 *288:2 *288:3 0.0192852
8 *288:1 *288:2 0.0449989
9 *959:AN *288:1 1.4
*END

*D_NET *289 0.0437321

*CONN
*I *914:B1 I *C 47.668 62.7445 *L 0.00163 *D AOI222XL
*I *912:B1 I *C 42.416 43.3965 *L 0.00163 *D AOI222XL
*I *913:B1 I *C 42.637 60.311 *L 0.00163 *D AOI222XL
*I *925:B1 I *C 45.5625 36.028 *L 0.00163 *D AOI222XL
*I *911:B1 I *C 48.083 21.8895 *L 0.00163 *D AOI222XL
*I *942:B1 I *C 46.798 11.949 *L 0.00163 *D AOI222XL
*I *956:B1 I *C 37.14 11.2865 *L 0.00163 *D AOI222XL
*I *955:B1 I *C 15.516 11.8665 *L 0.00163 *D AOI222XL
*I *954:B1 I *C 15.255 33.372 *L 0.00163 *D AOI222XL
*I *953:B1 I *C 13.326 17.7755 *L 0.00163 *D AOI222XL
*I *952:B1 I *C 16.4815 40.9665 *L 0.00163 *D AOI222XL
*I *951:B1 I *C 16.579 53.242 *L 0.00163 *D AOI222XL
*I *950:B1 I *C 15.8485 61.758 *L 0.00163 *D AOI222XL
*I *949:B1 I *C 13.325 72.239 *L 0.00163 *D AOI222XL
*I *948:B1 I *C 12.4385 87.325 *L 0.00163 *D AOI222XL
*I *947:B1 I *C 17.2995 91.0525 *L 0.00163 *D AOI222XL
*I *946:B1 I *C 34.1645 89.648 *L 0.00163 *D AOI222XL
*I *945:B1 I *C 42.229 87.5695 *L 0.00163 *D AOI222XL
*I *944:B1 I *C 50.749 87.518 *L 0.00163 *D AOI222XL
*I *943:B1 I *C 63.618 87.152 *L 0.00163 *D AOI222XL
*I *957:B1 I *C 69.8185 88.183 *L 0.00163 *D AOI222XL
*I *910:B1 I *C 80.3375 90.4985 *L 0.00163 *D AOI222XL
*I *924:B1 I *C 95.1435 90.7865 *L 0.00163 *D AOI222XL
*I *922:B1 I *C 95.839 67.2575 *L 0.00163 *D AOI222XL
*I *923:B1 I *C 98.063 85.94 *L 0.00163 *D AOI222XL
*I *920:B1 I *C 95.0825 46.753 *L 0.00163 *D AOI222XL
*I *921:B1 I *C 93.9935 59.642 *L 0.00163 *D AOI222XL
*I *919:B1 I *C 95.1715 35.0025 *L 0.00163 *D AOI222XL
*I *918:B1 I *C 80.6665 33.0165 *L 0.00163 *D AOI222XL
*I *959:Y O *C 70.731 14.109 *L 0 *D NOR2BX1
*I *917:B1 I *C 68.321 36.288 *L 0.00163 *D AOI222XL
*I *916:B1 I *C 69.2485 45.9 *L 0.00163 *D AOI222XL
*I *915:B1 I *C 67.91 61.464 *L 0.00163 *D AOI222XL

*CAP
1 *289:1 1.68723e-06
2 *289:2 3.61549e-06
3 *289:3 1.92826e-06
4 *289:4 0.000253123
5 *289:5 0.000253123
6 *289:6 0.000125819
7 *289:7 0.000952997
8 *289:8 1.40624e-05
9 *289:9 0.00082919
10 *289:10 1.40624e-05
11 *289:12 2.01127e-06
12 *289:13 6.50787e-06
13 *289:14 3.51973e-06
14 *289:15 0.000151731
15 *289:16 1.32568e-05
16 *289:17 3.51973e-06
17 *289:18 0.000151731
18 *289:19 6.74891e-06
19 *289:21 0.000368315
20 *289:23 0.00108954
21 *289:25 0.000721222
22 *289:26 5.531e-06
23 *289:27 6.51647e-05
24 *289:28 5.531e-06
25 *289:29 0.000130329
26 *289:31 6.51647e-05
27 *289:32 0.000524858
28 *289:33 2.6388e-07
29 *289:34 0.000535677
30 *289:35 5.01372e-06
31 *289:37 1.08191e-05
32 *289:38 4.74984e-06
33 *289:39 1.84716e-06
34 *289:40 0.000537609
35 *289:42 1.84716e-06
36 *289:43 0.00175198
37 *289:45 2.4277e-05
38 *289:46 0.00121437
39 *289:47 2.4277e-05
40 *289:48 0.000309837
41 *289:50 0.00110798
42 *289:51 1.56577e-05
43 *289:52 6.59701e-06
44 *289:53 0.00119632
45 *289:54 0.000109604
46 *289:55 1.56577e-05
47 *289:56 6.59701e-06
48 *289:57 0.000398172
49 *289:59 0.000109604
50 *289:60 6.10517e-06
51 *289:62 5.92401e-05
52 *289:63 1.5584e-06
53 *289:64 3.05258e-06
54 *289:65 6.10517e-06
55 *289:66 5.92401e-05
56 *289:67 1.5584e-06
57 *289:68 9.66651e-06
58 *289:70 0.000634324
59 *289:71 3.63628e-06
60 *289:73 6.61393e-06
61 *289:74 0.00102245
62 *289:75 8.57122e-06
63 *289:77 0.000388126
64 *289:78 1.55525e-05
65 *289:79 4.93495e-06
66 *289:80 3.1105e-05
67 *289:81 1.55525e-05
68 *289:83 0.000171078
69 *289:84 1.33836e-06
70 *289:85 6.93273e-05
71 *289:86 0.000139973
72 *289:87 6.42415e-06
73 *289:88 7.17363e-05
74 *289:89 0.00063037
75 *289:90 5.08579e-06
76 *289:91 2.40906e-06
77 *289:92 0.00138984
78 *289:95 0.000805269
79 *289:97 0.000138267
80 *289:98 4.57952e-05
81 *289:99 6.9595e-06
82 *289:100 0.000138267
83 *289:101 4.60891e-05
84 *289:102 6.9595e-06
85 *289:103 0.000183181
86 *289:104 4.60891e-05
87 *289:106 0.000183181
88 *289:107 5.79019e-06
89 *289:108 7.68152e-05
90 *289:109 1.18436e-05
91 *289:110 0.00099809
92 *289:111 6.05339e-06
93 *289:112 0.000921274
94 *289:113 5.31645e-05
95 *289:115 2.0409e-05
96 *289:116 5.55332e-05
97 *289:117 0.000139505
98 *289:118 2.36872e-06
99 *289:119 4.65015e-06
100 *289:120 0.000114445
101 *289:123 0.000460933
102 *289:124 0.000938328
103 *289:125 0.00121452
104 *289:126 6.97523e-06
105 *289:127 0.00108088
106 *289:128 4.39181e-06
107 *289:129 8.78362e-06
108 *289:130 0.000834694
109 *289:131 1.4748e-05
110 *289:132 1.18837e-05
111 *289:133 1.80839e-06
112 *289:134 0.000490941
113 *289:135 3.88105e-05
114 *289:136 1.65591e-05
115 *289:137 7.49191e-06
116 *289:139 0.000169653
117 *289:140 4.26915e-05
118 *289:141 1.81115e-06
119 *289:143 0.000169653
120 *289:144 3.88105e-06
121 *289:146 0.000112708
122 *289:148 0.000933869
123 *289:149 0.000821161
124 *289:150 6.64784e-06
125 *289:151 0.000286123
126 *289:152 1.38275e-05
127 *289:153 1.48912e-05
128 *289:154 0.000277614
129 *289:155 7.17967e-06
130 *289:156 6.38193e-06
131 *289:157 3.22024e-05
132 *289:160 0.000161012
133 *289:161 0.00012881
134 *289:162 0.000958132
135 *289:163 2.84528e-05
136 *289:164 0.000964965
137 *289:165 3.3771e-05
138 *289:166 2.62803e-07
139 *289:167 6.57007e-06
140 *289:168 5.31827e-06
141 *289:170 4.43422e-05
142 *289:172 4.43422e-05
143 *289:173 0.000396307
144 *289:174 0.00106783
145 *289:175 4.43422e-05
146 *289:176 0.001285
147 *289:177 4.43422e-05
148 *289:179 0.00061347
149 *289:180 2.36523e-06
150 *289:181 5.71395e-06
151 *289:182 1.53835e-05
152 *289:183 0.000753792
153 *289:184 8.14689e-06
154 *289:185 5.71395e-06
155 *289:186 1.53835e-05
156 *289:187 0.000753792
157 *289:188 5.78166e-06
158 *289:190 3.1167e-06
159 *289:191 0.000130382
160 *289:193 8.05147e-06
161 *289:194 3.01281e-05
162 *289:195 0.000100254
163 *289:196 4.93477e-06
164 *289:197 0.000501259
165 *289:200 0.000501259
166 *289:201 5.1945e-06
167 *289:202 0.00110185
168 *289:203 5.1945e-06
169 *289:204 4.37745e-05
170 *289:205 0.00105808
171 *289:207 0.000111849
172 *289:209 0.000111849
173 *289:210 5.59994e-06
174 *289:211 0.000486803
175 *289:212 5.59994e-06
176 *289:213 0.00048152
177 *289:214 5.28313e-06
178 *289:216 1.39811e-05
179 *289:218 1.39811e-05
180 *289:220 0.000747753
181 *289:222 0.000747753
182 *289:223 2.79622e-05
183 *289:224 1.25789e-06
184 *289:225 2.91552e-05
185 *289:226 2.79622e-05
186 *289:227 1.25789e-06
187 *289:228 2.91552e-05
188 *289:229 3.27051e-06
189 *289:231 6.17675e-06
190 *289:232 7.54733e-06
191 *289:233 1.06905e-05
192 *289:234 4.27682e-06
193 *289:235 4.51378e-06

*RES
1 *289:235 *915:B1 1.4
2 *289:234 *916:B1 1.4
3 *289:233 *289:235 0.0407141
4 *289:232 *289:234 0.0364277
5 *289:231 *289:233 0.0557141
6 *289:229 *289:232 0.0278565
7 *289:228 *289:231 1.4
8 *289:227 *917:B1 1.4
9 *289:226 *289:229 1.4
10 *289:225 *289:228 0.248577
11 *289:224 *289:227 0.010714
12 *289:223 *289:226 0.248565
13 *289:222 *289:225 1.4
14 *289:221 *289:224 1.4
15 *289:220 *289:223 1.4
16 *289:220 *289:222 6.58706
17 *289:219 *289:221 1.4
18 *289:218 *289:220 1.4
19 *289:217 *289:219 1.4
20 *289:216 *289:218 0.124283
21 *289:214 *289:217 1.4
22 *289:213 *289:216 1.4
23 *289:212 *959:Y 1.4
24 *289:211 *289:214 0.0449989
25 *289:211 *289:213 4.10133
26 *289:210 *289:212 0.0492845
27 *289:209 *289:211 1.4
28 *289:208 *289:210 1.4
29 *289:207 *289:209 0.994261
30 *289:205 *289:208 1.4
31 *289:204 *289:207 1.4
32 *289:203 *918:B1 1.4
33 *289:202 *289:205 9.17763
34 *289:202 *289:204 0.372848
35 *289:201 *289:203 0.0428561
36 *289:200 *289:202 1.4
37 *289:198 *289:201 1.4
38 *289:197 *289:200 4.34994
39 *289:196 *919:B1 1.4
40 *289:195 *289:198 1.4
41 *289:194 *289:197 1.4
42 *289:193 *289:196 0.0407133
43 *289:191 *289:195 0.827123
44 *289:191 *289:194 0.248565
45 *289:190 *289:193 0.0257137
46 *289:188 *921:B1 1.4
47 *289:187 *289:191 1.4
48 *289:186 *289:190 1.4
49 *289:185 *920:B1 1.4
50 *289:184 *289:188 0.0471435
51 *289:183 *289:187 6.0901
52 *289:182 *289:186 0.124288
53 *289:181 *289:185 0.0471417
54 *289:180 *289:184 0.019286
55 *289:179 *289:183 1.4
56 *289:179 *289:182 1.4
57 *289:178 *289:181 1.4
58 *289:177 *289:180 1.4
59 *289:176 *289:179 5.0613
60 *289:176 *289:178 1.4
61 *289:175 *289:177 0.37285
62 *289:174 *289:176 5.50284
63 *289:174 *289:175 1.4
64 *289:173 *289:174 3.23147
65 *289:172 *289:173 1.4
66 *289:170 *289:172 0.37285
67 *289:168 *923:B1 1.4
68 *289:167 *289:170 1.4
69 *289:166 *922:B1 1.4
70 *289:165 *289:168 0.0428582
71 *289:164 *289:167 0.0535721
72 *289:164 *289:166 0.00214289
73 *289:163 *289:165 0.229291
74 *289:162 *289:164 7.77656
75 *289:161 *289:163 1.4
76 *289:160 *289:162 1.4
77 *289:160 *289:161 0.994264
78 *289:157 *289:160 0.248566
79 *289:156 *924:B1 1.4
80 *289:155 *910:B1 1.4
81 *289:154 *289:157 1.4
82 *289:153 *289:156 0.0514298
83 *289:152 *289:155 0.0578586
84 *289:151 *289:154 2.2372
85 *289:151 *289:153 0.0685731
86 *289:150 *289:152 0.0535727
87 *289:149 *289:151 1.4
88 *289:148 *289:150 1.4
89 *289:148 *289:149 6.33843
90 *289:146 *289:148 0.869981
91 *289:144 *957:B1 1.4
92 *289:143 *289:146 1.4
93 *289:141 *943:B1 1.4
94 *289:140 *289:144 0.0321423
95 *289:139 *289:143 1.36718
96 *289:137 *944:B1 1.4
97 *289:136 *289:141 0.0149997
98 *289:135 *289:140 0.321423
99 *289:134 *289:139 1.4
100 *289:133 *945:B1 1.4
101 *289:132 *289:137 0.0621444
102 *289:131 *289:136 0.122141
103 *289:130 *289:135 1.4
104 *289:130 *289:134 3.72849
105 *289:129 *289:133 0.0150004
106 *289:128 *289:132 0.0364295
107 *289:127 *289:131 1.4
108 *289:127 *289:130 2.60994
109 *289:126 *289:129 0.0578586
110 *289:125 *289:128 1.4
111 *289:125 *289:127 5.59277
112 *289:124 *289:126 1.4
113 *289:124 *289:125 3.60437
114 *289:123 *289:124 3.48009
115 *289:120 *289:123 1.4
116 *289:119 *946:B1 1.4
117 *289:118 *947:B1 1.4
118 *289:117 *289:120 0.949309
119 *289:117 *289:119 0.0385724
120 *289:116 *289:118 0.0192861
121 *289:115 *289:117 0.16929
122 *289:113 *289:116 0.432866
123 *289:112 *289:115 1.4
124 *289:111 *948:B1 1.4
125 *289:110 *289:113 1.4
126 *289:110 *289:112 7.20858
127 *289:109 *289:111 0.0492868
128 *289:108 *289:110 0.621415
129 *289:107 *289:109 0.0471439
130 *289:106 *289:108 1.4
131 *289:104 *289:107 1.4
132 *289:103 *289:106 1.49146
133 *289:102 *949:B1 1.4
134 *289:101 *289:104 0.372849
135 *289:100 *289:103 1.4
136 *289:99 *289:102 0.0557134
137 *289:98 *289:101 1.4
138 *289:97 *289:100 1.11855
139 *289:96 *289:99 1.4
140 *289:95 *289:98 0.372865
141 *289:95 *289:97 1.4
142 *289:92 *289:96 1.4
143 *289:92 *289:95 6.13932
144 *289:91 *950:B1 1.4
145 *289:90 *951:B1 1.4
146 *289:89 *289:92 5.04635
147 *289:88 *289:91 0.0192854
148 *289:87 *289:90 0.0407136
149 *289:86 *289:89 1.4
150 *289:85 *289:88 0.554991
151 *289:84 *289:87 0.0107141
152 *289:83 *289:86 1.11855
153 *289:83 *289:85 1.4
154 *289:81 *289:84 1.4
155 *289:80 *289:83 0.248566
156 *289:79 *952:B1 1.4
157 *289:78 *289:81 0.124283
158 *289:77 *289:80 1.4
159 *289:75 *289:79 0.0407133
160 *289:74 *289:78 1.4
161 *289:74 *289:77 3.10709
162 *289:73 *953:B1 1.4
163 *289:71 *289:75 0.0299993
164 *289:70 *289:74 5.21988
165 *289:68 *289:73 0.0557135
166 *289:67 *954:B1 1.4
167 *289:66 *289:71 1.4
168 *289:66 *289:70 1.4
169 *289:65 *955:B1 1.4
170 *289:64 *289:68 0.0257139
171 *289:63 *289:67 0.0128568
172 *289:62 *289:66 0.497133
173 *289:60 *289:65 0.0514278
174 *289:59 *289:64 1.4
175 *289:58 *289:63 1.4
176 *289:57 *289:62 1.4
177 *289:56 *956:B1 1.4
178 *289:55 *289:60 1.4
179 *289:54 *289:59 0.870021
180 *289:53 *289:58 1.4
181 *289:53 *289:57 3.28492
182 *289:52 *289:56 0.0535705
183 *289:51 *289:55 0.124289
184 *289:50 *289:54 1.4
185 *289:50 *289:53 6.65773
186 *289:49 *289:52 1.4
187 *289:48 *289:51 1.4
188 *289:48 *289:50 2.60996
189 *289:47 *289:49 1.4
190 *289:46 *289:48 1.4
191 *289:45 *289:47 0.197139
192 *289:43 *289:46 9.44571
193 *289:43 *289:45 1.4
194 *289:42 *942:B1 1.4
195 *289:40 *289:43 4.10133
196 *289:39 *289:42 0.0149997
197 *289:38 *911:B1 1.4
198 *289:37 *289:40 1.4
199 *289:36 *289:39 1.4
200 *289:35 *289:38 0.0385707
201 *289:34 *289:37 0.0878555
202 *289:34 *289:36 1.4
203 *289:33 *289:35 0.00214282
204 *289:32 *289:34 4.26207
205 *289:31 *289:33 1.4
206 *289:29 *289:32 1.4
207 *289:29 *289:31 0.497131
208 *289:28 *925:B1 1.4
209 *289:27 *289:29 0.497131
210 *289:26 *289:28 0.047144
211 *289:25 *289:27 1.4
212 *289:24 *289:26 1.4
213 *289:23 *289:25 6.05793
214 *289:23 *289:24 1.4
215 *289:21 *289:23 3.13936
216 *289:19 *913:B1 1.4
217 *289:18 *289:21 1.4
218 *289:17 *912:B1 1.4
219 *289:16 *289:19 0.0599985
220 *289:15 *289:18 1.36711
221 *289:14 *289:17 0.0300007
222 *289:13 *289:16 0.0578557
223 *289:12 *289:15 1.4
224 *289:11 *289:14 1.4
225 *289:10 *289:13 1.4
226 *289:9 *289:12 0.0171433
227 *289:9 *289:11 1.4
228 *289:8 *289:10 0.124283
229 *289:7 *289:9 7.19144
230 *289:7 *289:8 1.4
231 *289:6 *289:7 1.11854
232 *289:5 *289:6 1.4
233 *289:4 *289:5 2.23709
234 *289:3 *289:4 1.4
235 *289:2 *289:3 0.0171424
236 *289:1 *289:2 0.0149996
237 *914:B1 *289:1 1.4
*END

*D_NET *290 0.000256365

*CONN
*I *893:C I *C 69.7645 15.197 *L 0.00165 *D OR3X1
*I *958:Y O *C 71.1665 14.092 *L 0 *D OAI33X1

*CAP
1 *290:1 9.73903e-07
2 *290:2 2.43476e-06
3 *290:3 1.46085e-06
4 *290:4 6.90179e-05
5 *290:5 6.90179e-05
6 *290:6 5.5269e-05
7 *290:7 5.67298e-05
8 *290:8 1.46085e-06

*RES
1 *290:8 *958:Y 1.4
2 *290:7 *290:8 0.0128568
3 *290:6 *290:7 0.486417
4 *290:5 *290:6 1.4
5 *290:4 *290:5 0.621419
6 *290:3 *290:4 1.4
7 *290:2 *290:3 0.0128568
8 *290:1 *290:2 0.00857122
9 *893:C *290:1 1.4
*END

*D_NET *291 0.000415426

*CONN
*I *941:A I *C 70.1905 84.898 *L 0.00273 *D INVX1
*I *957:Y O *C 69.5285 87.603 *L 0 *D AOI222XL

*CAP
1 *291:1 6.98588e-06
2 *291:2 1.08669e-05
3 *291:3 3.88105e-06
4 *291:4 4.91075e-05
5 *291:5 4.91075e-05
6 *291:6 0.000143857
7 *291:7 0.000147739
8 *291:8 3.88105e-06

*RES
1 *291:8 *957:Y 1.4
2 *291:7 *291:8 0.0321423
3 *291:6 *291:7 1.19141
4 *291:5 *291:6 1.4
5 *291:4 *291:5 0.372849
6 *291:3 *291:4 1.4
7 *291:2 *291:3 0.0321423
8 *291:1 *291:2 0.0578561
9 *941:A *291:1 1.4
*END

*D_NET *292 0.000308323

*CONN
*I *940:A I *C 36.0855 12.314 *L 0.00273 *D INVX1
*I *956:Y O *C 36.85 10.7065 *L 0 *D AOI222XL

*CAP
1 *292:1 1.05552e-06
2 *292:2 9.23581e-05
3 *292:3 9.13026e-05
4 *292:4 4.88735e-05
5 *292:5 4.88735e-05
6 *292:6 6.33313e-06
7 *292:7 1.29301e-05
8 *292:8 6.59701e-06

*RES
1 *292:8 *956:Y 1.4
2 *292:7 *292:8 0.0535705
3 *292:6 *292:7 0.0514276
4 *292:5 *292:6 1.4
5 *292:4 *292:5 0.372848
6 *292:3 *292:4 1.4
7 *292:2 *292:3 0.741415
8 *292:1 *292:2 0.00857127
9 *940:A *292:1 1.4
*END

*D_NET *293 0.000491396

*CONN
*I *939:A I *C 16.547 13.719 *L 0.00273 *D INVX1
*I *955:Y O *C 15.226 11.2865 *L 0 *D AOI222XL

*CAP
1 *293:1 6.61393e-06
2 *293:2 9.41213e-06
3 *293:3 2.7982e-06
4 *293:4 1.56577e-05
5 *293:5 1.56577e-05
6 *293:6 0.000118033
7 *293:7 0.000118033
8 *293:8 9.3946e-05
9 *293:9 9.3946e-05
10 *293:10 8.64899e-06
11 *293:11 8.64899e-06

*RES
1 *293:11 *955:Y 1.4
2 *293:10 *293:11 0.0728561
3 *293:9 *293:10 1.4
4 *293:8 *293:9 0.745733
5 *293:7 *293:8 1.4
6 *293:6 *293:7 0.994271
7 *293:5 *293:6 1.4
8 *293:4 *293:5 0.124289
9 *293:3 *293:4 1.4
10 *293:2 *293:3 0.0235711
11 *293:1 *293:2 0.0557135
12 *939:A *293:1 1.4
*END

*D_NET *294 0.00041252

*CONN
*I *938:A I *C 16.66 35.0045 *L 0.00273 *D INVX1
*I *954:Y O *C 14.965 32.792 *L 0 *D AOI222XL

*CAP
1 *294:1 7.79202e-07
2 *294:2 3.89601e-06
3 *294:3 3.11681e-06
4 *294:4 1.481e-05
5 *294:5 1.481e-05
6 *294:6 0.000105452
7 *294:7 0.000105452
8 *294:8 7.40501e-05
9 *294:9 7.40501e-05
10 *294:10 6.49335e-06
11 *294:11 8.05175e-06
12 *294:12 1.5584e-06

*RES
1 *294:12 *954:Y 1.4
2 *294:11 *294:12 0.0128568
3 *294:10 *294:11 0.0535701
4 *294:9 *294:10 1.4
5 *294:8 *294:9 0.621416
6 *294:7 *294:8 1.4
7 *294:6 *294:7 0.869979
8 *294:5 *294:6 1.4
9 *294:4 *294:5 0.124283
10 *294:3 *294:4 1.4
11 *294:2 *294:3 0.0257137
12 *294:1 *294:2 0.00642841
13 *938:A *294:1 1.4
*END

*D_NET *295 0.000663586

*CONN
*I *937:A I *C 14.785 21.028 *L 0.00273 *D INVX1
*I *953:Y O *C 13.036 17.1955 *L 0 *D AOI222XL

*CAP
1 *295:1 7.12269e-06
2 *295:2 2.16225e-05
3 *295:3 1.44998e-05
4 *295:4 9.3946e-05
5 *295:5 9.3946e-05
6 *295:6 0.000209611
7 *295:7 0.000216225
8 *295:8 6.61393e-06

*RES
1 *295:8 *953:Y 1.4
2 *295:7 *295:8 0.0557135
3 *295:6 *295:7 1.76569
4 *295:5 *295:6 1.4
5 *295:4 *295:5 0.745733
6 *295:3 *295:4 1.4
7 *295:2 *295:3 0.122141
8 *295:1 *295:2 0.0599991
9 *937:A *295:1 1.4
*END

*D_NET *296 0.000360054

*CONN
*I *936:A I *C 17.835 42.0455 *L 0.00273 *D INVX1
*I *952:Y O *C 16.1915 40.3865 *L 0 *D AOI222XL

*CAP
1 *296:1 7.27255e-06
2 *296:2 7.27255e-06
3 *296:3 2.962e-05
4 *296:4 2.962e-05
5 *296:5 7.53229e-05
6 *296:6 7.53229e-05
7 *296:7 5.92401e-05
8 *296:8 5.92401e-05
9 *296:9 3.63628e-06
10 *296:10 8.57122e-06
11 *296:11 4.93495e-06

*RES
1 *296:11 *952:Y 1.4
2 *296:10 *296:11 0.0407133
3 *296:9 *296:10 0.0299993
4 *296:8 *296:9 1.4
5 *296:7 *296:8 0.497133
6 *296:6 *296:7 1.4
7 *296:5 *296:6 0.621413
8 *296:4 *296:5 1.4
9 *296:3 *296:4 0.248566
10 *296:2 *296:3 1.4
11 *296:1 *296:2 0.0599985
12 *936:A *296:1 1.4
*END

*D_NET *297 0.000503019

*CONN
*I *935:A I *C 18 55.145 *L 0.00273 *D INVX1
*I *951:Y O *C 16.289 52.662 *L 0 *D AOI222XL

*CAP
1 *297:1 6.69182e-06
2 *297:2 1.20453e-05
3 *297:3 5.35346e-06
4 *297:4 3.1105e-05
5 *297:5 3.1105e-05
6 *297:6 0.000139725
7 *297:7 0.000139725
8 *297:8 6.221e-05
9 *297:9 6.221e-05
10 *297:10 1.33836e-06
11 *297:11 6.42415e-06
12 *297:12 5.08579e-06

*RES
1 *297:12 *951:Y 1.4
2 *297:11 *297:12 0.0407136
3 *297:10 *297:11 0.0107141
4 *297:9 *297:10 1.4
5 *297:8 *297:9 0.497132
6 *297:7 *297:8 1.4
7 *297:6 *297:7 1.11855
8 *297:5 *297:6 1.4
9 *297:4 *297:5 0.248566
10 *297:3 *297:4 1.4
11 *297:2 *297:3 0.0428565
12 *297:1 *297:2 0.0535706
13 *935:A *297:1 1.4
*END

*D_NET *298 0.000383692

*CONN
*I *934:A I *C 17.4385 62.5795 *L 0.00273 *D INVX1
*I *950:Y O *C 15.5585 61.178 *L 0 *D AOI222XL

*CAP
1 *298:1 5.62113e-06
2 *298:2 7.22717e-05
3 *298:3 6.66506e-05
4 *298:4 0.000108868
5 *298:5 0.000108868
6 *298:6 8.29786e-06
7 *298:7 1.07069e-05
8 *298:8 2.40906e-06

*RES
1 *298:8 *950:Y 1.4
2 *298:7 *298:8 0.0192854
3 *298:6 *298:7 0.0664275
4 *298:5 *298:6 1.4
5 *298:4 *298:5 0.869982
6 *298:3 *298:4 1.4
7 *298:2 *298:3 0.533563
8 *298:1 *298:2 0.0449993
9 *934:A *298:1 1.4
*END

*D_NET *299 0.000309334

*CONN
*I *933:A I *C 15.228 72.0885 *L 0.00273 *D INVX1
*I *949:Y O *C 13.035 71.659 *L 0 *D AOI222XL

*CAP
1 *299:1 2.67673e-07
2 *299:2 1.71311e-05
3 *299:3 1.68634e-05
4 *299:4 0.00012442
5 *299:5 0.00012442
6 *299:6 6.15648e-06
7 *299:7 1.3116e-05
8 *299:8 6.9595e-06

*RES
1 *299:8 *949:Y 1.4
2 *299:7 *299:8 0.0557134
3 *299:6 *299:7 0.0492849
4 *299:5 *299:6 1.4
5 *299:4 *299:5 0.994265
6 *299:3 *299:4 1.4
7 *299:2 *299:3 0.134998
8 *299:1 *299:2 0.00214282
9 *933:A *299:1 1.4
*END

*D_NET *300 0.000440239

*CONN
*I *932:A I *C 14.5865 85.5845 *L 0.00273 *D INVX1
*I *948:Y O *C 12.1485 86.745 *L 0 *D AOI222XL

*CAP
1 *300:1 3.15829e-06
2 *300:2 2.42135e-05
3 *300:3 2.10553e-05
4 *300:4 9.21782e-05
5 *300:5 9.21782e-05
6 *300:6 4.57952e-05
7 *300:7 4.57952e-05
8 *300:8 4.60891e-05
9 *300:9 4.60891e-05
10 *300:10 5.79019e-06
11 *300:11 1.18436e-05
12 *300:12 6.05339e-06

*RES
1 *300:12 *948:Y 1.4
2 *300:11 *300:12 0.0492868
3 *300:10 *300:11 0.0471439
4 *300:9 *300:10 1.4
5 *300:8 *300:9 0.372849
6 *300:7 *300:8 1.4
7 *300:6 *300:7 0.372865
8 *300:5 *300:6 1.4
9 *300:4 *300:5 0.745699
10 *300:3 *300:4 1.4
11 *300:2 *300:3 0.171432
12 *300:1 *300:2 0.0257148
13 *932:A *300:1 1.4
*END

*D_NET *301 0.000752445

*CONN
*I *931:A I *C 20.347 88.473 *L 0.00273 *D INVX1
*I *947:Y O *C 17.0095 90.4725 *L 0 *D AOI222XL

*CAP
1 *301:1 5.26381e-06
2 *301:2 4.47424e-05
3 *301:3 3.94786e-05
4 *301:4 0.000168993
5 *301:5 0.000168993
6 *301:6 0.000137386
7 *301:7 0.000137386
8 *301:8 1.5363e-05
9 *301:9 1.5363e-05
10 *301:10 7.36934e-06
11 *301:11 9.73805e-06
12 *301:12 2.36872e-06

*RES
1 *301:12 *947:Y 1.4
2 *301:11 *301:12 0.0192861
3 *301:10 *301:11 0.0600013
4 *301:9 *301:10 1.4
5 *301:8 *301:9 0.124283
6 *301:7 *301:8 1.4
7 *301:6 *301:7 1.1186
8 *301:5 *301:6 1.4
9 *301:4 *301:5 1.36711
10 *301:3 *301:4 1.4
11 *301:2 *301:3 0.321435
12 *301:1 *301:2 0.042858
13 *931:A *301:1 1.4
*END

*D_NET *302 0.000641975

*CONN
*I *930:A I *C 35.927 86.137 *L 0.00273 *D INVX1
*I *946:Y O *C 33.8745 89.068 *L 0 *D AOI222XL

*CAP
1 *302:1 5.68352e-06
2 *302:2 1.29171e-05
3 *302:3 7.23357e-06
4 *302:4 1.64619e-05
5 *302:5 1.64619e-05
6 *302:6 0.000149838
7 *302:7 0.000149838
8 *302:8 0.000131695
9 *302:9 0.000131695
10 *302:10 5.42518e-06
11 *302:11 1.00753e-05
12 *302:12 4.65015e-06

*RES
1 *302:12 *946:Y 1.4
2 *302:11 *302:12 0.0385724
3 *302:10 *302:11 0.0450011
4 *302:9 *302:10 1.4
5 *302:8 *302:9 0.99431
6 *302:7 *302:8 1.4
7 *302:6 *302:7 1.24289
8 *302:5 *302:6 1.4
9 *302:4 *302:5 0.124289
10 *302:3 *302:4 1.4
11 *302:2 *302:3 0.0600015
12 *302:1 *302:2 0.047144
13 *930:A *302:1 1.4
*END

*D_NET *303 0.000411882

*CONN
*I *929:A I *C 42.9215 84.141 *L 0.00273 *D INVX1
*I *945:Y O *C 41.939 86.9895 *L 0 *D AOI222XL

*CAP
1 *303:1 7.49191e-06
2 *303:2 1.29171e-05
3 *303:3 5.42518e-06
4 *303:4 3.29238e-05
5 *303:5 3.29238e-05
6 *303:6 0.000134854
7 *303:7 0.000134854
8 *303:8 1.64619e-05
9 *303:9 1.64619e-05
10 *303:10 6.97523e-06
11 *303:11 8.78362e-06
12 *303:12 1.80839e-06

*RES
1 *303:12 *945:Y 1.4
2 *303:11 *303:12 0.0150004
3 *303:10 *303:11 0.0578586
4 *303:9 *303:10 1.4
5 *303:8 *303:9 0.124289
6 *303:7 *303:8 1.4
7 *303:6 *303:7 1.1186
8 *303:5 *303:6 1.4
9 *303:4 *303:5 0.248578
10 *303:3 *303:4 1.4
11 *303:2 *303:3 0.0450011
12 *303:1 *303:2 0.0621444
13 *929:A *303:1 1.4
*END

*D_NET *304 0.000474112

*CONN
*I *928:A I *C 51.6495 84.207 *L 0.00273 *D INVX1
*I *944:Y O *C 50.459 86.938 *L 0 *D AOI222XL

*CAP
1 *304:1 5.94186e-06
2 *304:2 8.0086e-06
3 *304:3 2.06673e-06
4 *304:4 6.58476e-05
5 *304:5 6.58476e-05
6 *304:6 0.000134854
7 *304:7 0.000134854
8 *304:8 1.64619e-05
9 *304:9 1.64619e-05
10 *304:10 4.39181e-06
11 *304:11 1.18837e-05
12 *304:12 7.49191e-06

*RES
1 *304:12 *944:Y 1.4
2 *304:11 *304:12 0.0621444
3 *304:10 *304:11 0.0364295
4 *304:9 *304:10 1.4
5 *304:8 *304:9 0.124289
6 *304:7 *304:8 1.4
7 *304:6 *304:7 1.1186
8 *304:5 *304:6 1.4
9 *304:4 *304:5 0.497155
10 *304:3 *304:4 1.4
11 *304:2 *304:3 0.0171433
12 *304:1 *304:2 0.0492869
13 *928:A *304:1 1.4
*END

*D_NET *305 0.000452821

*CONN
*I *927:A I *C 64.638 83.608 *L 0.00273 *D INVX1
*I *943:Y O *C 63.328 86.572 *L 0 *D AOI222XL

*CAP
1 *305:1 5.95094e-06
2 *305:2 8.79704e-06
3 *305:3 2.8461e-06
4 *305:4 3.27383e-05
5 *305:5 3.27383e-05
6 *305:6 0.000150067
7 *305:7 0.000150067
8 *305:8 3.27383e-05
9 *305:9 3.27383e-05
10 *305:10 2.58736e-07
11 *305:11 2.06989e-06
12 *305:12 1.81115e-06

*RES
1 *305:12 *943:Y 1.4
2 *305:11 *305:12 0.0149997
3 *305:10 *305:11 0.00214282
4 *305:9 *305:10 1.4
5 *305:8 *305:9 0.248566
6 *305:7 *305:8 1.4
7 *305:6 *305:7 1.24284
8 *305:5 *305:6 1.4
9 *305:4 *305:5 0.248566
10 *305:3 *305:4 1.4
11 *305:2 *305:3 0.023571
12 *305:1 *305:2 0.0492849
13 *927:A *305:1 1.4
*END

*D_NET *306 0.000314907

*CONN
*I *926:A I *C 45.0765 12.755 *L 0.00273 *D INVX1
*I *942:Y O *C 46.508 11.369 *L 0 *D AOI222XL

*CAP
1 *306:1 1.05552e-06
2 *306:2 8.44417e-06
3 *306:3 7.38865e-06
4 *306:4 8.14558e-05
5 *306:5 8.14558e-05
6 *306:6 6.57062e-05
7 *306:7 6.75533e-05
8 *306:8 1.84716e-06

*RES
1 *306:8 *942:Y 1.4
2 *306:7 *306:8 0.0149997
3 *306:6 *306:7 0.533562
4 *306:5 *306:6 1.4
5 *306:4 *306:5 0.621413
6 *306:3 *306:4 1.4
7 *306:2 *306:3 0.0599989
8 *306:1 *306:2 0.00857127
9 *926:A *306:1 1.4
*END

*D_NET *307 0.000730632

*CONN
*I *837:D I *C 73.847 81.8585 *L 0.00276 *D SDFFRHQX1
*I *941:Y O *C 70.563 84.898 *L 0 *D INVX1

*CAP
1 *307:1 2.06989e-06
2 *307:2 1.3713e-05
3 *307:3 1.16431e-05
4 *307:4 0.000180061
5 *307:5 0.000180061
6 *307:6 0.000168955
7 *307:7 0.000171542
8 *307:8 2.58736e-06

*RES
1 *307:8 *941:Y 1.4
2 *307:7 *307:8 0.0214282
3 *307:6 *307:7 1.39926
4 *307:5 *307:6 1.4
5 *307:4 *307:5 1.36711
6 *307:3 *307:4 1.4
7 *307:2 *307:3 0.0964269
8 *307:1 *307:2 0.0171426
9 *837:D *307:1 1.4
*END

*D_NET *308 0.000281935

*CONN
*I *851:D I *C 37.2525 13.987 *L 0.00276 *D SDFFRHQX1
*I *940:Y O *C 36.458 12.314 *L 0 *D INVX1

*CAP
1 *308:1 5.27761e-07
2 *308:2 4.22208e-05
3 *308:3 4.16931e-05
4 *308:4 4.88735e-05
5 *308:5 4.88735e-05
6 *308:6 4.64429e-05
7 *308:7 4.98734e-05
8 *308:8 3.43044e-06

*RES
1 *308:8 *940:Y 1.4
2 *308:7 *308:8 0.0278566
3 *308:6 *308:7 0.377136
4 *308:5 *308:6 1.4
5 *308:4 *308:5 0.372848
6 *308:3 *308:4 1.4
7 *308:2 *308:3 0.338565
8 *308:1 *308:2 0.00428564
9 *851:D *308:1 1.4
*END

*D_NET *309 0.000755655

*CONN
*I *850:D I *C 21.2685 16.4385 *L 0.00276 *D SDFFRHQX1
*I *939:Y O *C 16.9195 13.719 *L 0 *D INVX1

*CAP
1 *309:1 2.28944e-06
2 *309:2 0.000137875
3 *309:3 0.000135586
4 *309:4 0.000234865
5 *309:5 0.000234865
6 *309:6 2.7982e-06
7 *309:7 5.08764e-06
8 *309:8 2.28944e-06

*RES
1 *309:8 *939:Y 1.4
2 *309:7 *309:8 0.0192854
3 *309:6 *309:7 0.0235711
4 *309:5 *309:6 1.4
5 *309:4 *309:5 1.86433
6 *309:3 *309:4 1.4
7 *309:2 *309:3 1.14213
8 *309:1 *309:2 0.0192854
9 *850:D *309:1 1.4
*END

*D_NET *310 0.000571041

*CONN
*I *848:D I *C 20.956 36.3705 *L 0.00276 *D SDFFRHQX1
*I *938:Y O *C 17.0325 35.0045 *L 0 *D INVX1

*CAP
1 *310:1 3.63628e-06
2 *310:2 1.74022e-05
3 *310:3 1.37659e-05
4 *310:4 0.00020734
5 *310:5 0.00020734
6 *310:6 5.71415e-05
7 *310:7 6.07778e-05
8 *310:8 3.63628e-06

*RES
1 *310:8 *938:Y 1.4
2 *310:7 *310:8 0.0299993
3 *310:6 *310:7 0.471417
4 *310:5 *310:6 1.4
5 *310:4 *310:5 1.73996
6 *310:3 *310:4 1.4
7 *310:2 *310:3 0.113569
8 *310:1 *310:2 0.0299993
9 *848:D *310:1 1.4
*END

*D_NET *311 0.000846724

*CONN
*I *849:D I *C 19.657 24.5805 *L 0.00276 *D SDFFRHQX1
*I *937:Y O *C 15.1575 21.028 *L 0 *D INVX1

*CAP
1 *311:1 4.07011e-06
2 *311:2 0.000184936
3 *311:3 0.000180866
4 *311:4 0.000234865
5 *311:5 0.000234865
6 *311:6 2.54382e-07
7 *311:7 3.56135e-06
8 *311:8 3.30697e-06

*RES
1 *311:8 *937:Y 1.4
2 *311:7 *311:8 0.0278567
3 *311:6 *311:7 0.00214283
4 *311:5 *311:6 1.4
5 *311:4 *311:5 1.86433
6 *311:3 *311:4 1.4
7 *311:2 *311:3 1.52355
8 *311:1 *311:2 0.0342852
9 *849:D *311:1 1.4
*END

*D_NET *312 0.000535706

*CONN
*I *847:D I *C 21.842 43.3535 *L 0.00276 *D SDFFRHQX1
*I *936:Y O *C 18.2075 42.0455 *L 0 *D INVX1

*CAP
1 *312:1 2.85707e-06
2 *312:2 3.29862e-05
3 *312:3 3.01291e-05
4 *312:4 0.00019253
5 *312:5 0.00019253
6 *312:6 3.79212e-05
7 *312:7 4.23366e-05
8 *312:8 4.41548e-06

*RES
1 *312:8 *936:Y 1.4
2 *312:7 *312:8 0.0364277
3 *312:6 *312:7 0.31285
4 *312:5 *312:6 1.4
5 *312:4 *312:5 1.61568
6 *312:3 *312:4 1.4
7 *312:2 *312:3 0.248565
8 *312:1 *312:2 0.0235709
9 *847:D *312:1 1.4
*END

*D_NET *313 0.000587989

*CONN
*I *846:D I *C 22.1395 56.773 *L 0.00276 *D SDFFRHQX1
*I *935:Y O *C 18.3725 55.145 *L 0 *D INVX1

*CAP
1 *313:1 2.40906e-06
2 *313:2 5.32669e-05
3 *313:3 5.08579e-05
4 *313:4 0.000202183
5 *313:5 0.000202183
6 *313:6 3.64035e-05
7 *313:7 3.85449e-05
8 *313:8 2.14138e-06

*RES
1 *313:8 *935:Y 1.4
2 *313:7 *313:8 0.0171426
3 *313:6 *313:7 0.291424
4 *313:5 *313:6 1.4
5 *313:4 *313:5 1.61568
6 *313:3 *313:4 1.4
7 *313:2 *313:3 0.407136
8 *313:1 *313:2 0.0192854
9 *846:D *313:1 1.4
*END

*D_NET *314 0.00054409

*CONN
*I *845:D I *C 21.6995 63.596 *L 0.00276 *D SDFFRHQX1
*I *934:Y O *C 17.811 62.5795 *L 0 *D INVX1

*CAP
1 *314:1 5.08579e-06
2 *314:2 6.39738e-05
3 *314:3 5.8888e-05
4 *314:4 0.000202183
5 *314:5 0.000202183
6 *314:6 4.55044e-06
7 *314:7 5.8888e-06
8 *314:8 1.33836e-06

*RES
1 *314:8 *934:Y 1.4
2 *314:7 *314:8 0.0107141
3 *314:6 *314:7 0.036428
4 *314:5 *314:6 1.4
5 *314:4 *314:5 1.61568
6 *314:3 *314:4 1.4
7 *314:2 *314:3 0.471421
8 *314:1 *314:2 0.0407136
9 *845:D *314:1 1.4
*END

*D_NET *315 0.000569471

*CONN
*I *844:D I *C 20.3435 72.2355 *L 0.00276 *D SDFFRHQX1
*I *933:Y O *C 15.6005 72.0885 *L 0 *D INVX1

*CAP
1 *315:1 5.35346e-06
2 *315:2 1.44543e-05
3 *315:3 9.10088e-06
4 *315:4 0.000264393
5 *315:5 0.000264393
6 *315:6 1.33836e-06
7 *315:7 5.8888e-06
8 *315:8 4.55044e-06

*RES
1 *315:8 *933:Y 1.4
2 *315:7 *315:8 0.036428
3 *315:6 *315:7 0.0107141
4 *315:5 *315:6 1.4
5 *315:4 *315:5 2.11281
6 *315:3 *315:4 1.4
7 *315:2 *315:3 0.072856
8 *315:1 *315:2 0.0428565
9 *844:D *315:1 1.4
*END

*D_NET *316 0.0009114

*CONN
*I *843:D I *C 20.6755 83.0995 *L 0.00276 *D SDFFRHQX1
*I *932:Y O *C 14.959 85.5845 *L 0 *D INVX1

*CAP
1 *316:1 3.15829e-06
2 *316:2 3.94786e-06
3 *316:3 7.89572e-07
4 *316:4 3.07261e-05
5 *316:5 3.07261e-05
6 *316:6 0.000137386
7 *316:7 0.000137386
8 *316:8 0.000276535
9 *316:9 0.000276535
10 *316:10 5.79019e-06
11 *316:11 7.10615e-06
12 *316:12 1.31595e-06

*RES
1 *316:12 *932:Y 1.4
2 *316:11 *316:12 0.0107145
3 *316:10 *316:11 0.0471439
4 *316:9 *316:10 1.4
5 *316:8 *316:9 2.2371
6 *316:7 *316:8 1.4
7 *316:6 *316:7 1.1186
8 *316:5 *316:6 1.4
9 *316:4 *316:5 0.248566
10 *316:3 *316:4 1.4
11 *316:2 *316:3 0.00642871
12 *316:1 *316:2 0.0257148
13 *843:D *316:1 1.4
*END

*D_NET *317 0.00115101

*CONN
*I *842:D I *C 26.9875 84.9965 *L 0.00276 *D SDFFRHQX1
*I *931:Y O *C 20.7195 88.473 *L 0 *D INVX1

*CAP
1 *317:1 6.45855e-06
2 *317:2 1.26588e-05
3 *317:3 6.2002e-06
4 *317:4 0.000357196
5 *317:5 0.000357196
6 *317:6 0.000183181
7 *317:7 0.000183181
8 *317:8 1.5363e-05
9 *317:9 1.5363e-05
10 *317:10 6.31658e-06
11 *317:11 7.10615e-06
12 *317:12 7.89572e-07

*RES
1 *317:12 *931:Y 1.4
2 *317:11 *317:12 0.00642871
3 *317:10 *317:11 0.0514297
4 *317:9 *317:10 1.4
5 *317:8 *317:9 0.124283
6 *317:7 *317:8 1.4
7 *317:6 *317:7 1.49146
8 *317:5 *317:6 1.4
9 *317:4 *317:5 2.85853
10 *317:3 *317:4 1.4
11 *317:2 *317:3 0.0514298
12 *317:1 *317:2 0.0535727
13 *842:D *317:1 1.4
*END

*D_NET *318 0.000821205

*CONN
*I *841:D I *C 40.175 82.715 *L 0.00276 *D SDFFRHQX1
*I *930:Y O *C 36.2995 86.137 *L 0 *D INVX1

*CAP
1 *318:1 5.16684e-07
2 *318:2 5.16684e-07
3 *318:4 0.000183939
4 *318:5 0.000183939
5 *318:6 0.000214005
6 *318:7 0.000214005
7 *318:8 7.23357e-06
8 *318:9 1.21421e-05
9 *318:10 4.9085e-06

*RES
1 *318:10 *930:Y 1.4
2 *318:9 *318:10 0.0407153
3 *318:8 *318:9 0.0600015
4 *318:7 *318:8 1.4
5 *318:6 *318:7 1.61575
6 *318:5 *318:6 1.4
7 *318:4 *318:5 1.52575
8 *318:3 *318:4 1.4
9 *318:2 *318:3 1.4
10 *318:1 *318:2 0.00428582
11 *841:D *318:1 1.4
*END

*D_NET *319 0.000783775

*CONN
*I *840:D I *C 46.6605 81.0255 *L 0.00276 *D SDFFRHQX1
*I *929:Y O *C 43.294 84.141 *L 0 *D INVX1

*CAP
1 *319:1 5.94186e-06
2 *319:2 0.000187298
3 *319:3 0.000181356
4 *319:4 0.000181081
5 *319:5 0.000181081
6 *319:6 2.0409e-05
7 *319:7 2.35091e-05
8 *319:8 3.1001e-06

*RES
1 *319:8 *929:Y 1.4
2 *319:7 *319:8 0.0257149
3 *319:6 *319:7 0.16929
4 *319:5 *319:6 1.4
5 *319:4 *319:5 1.36718
6 *319:3 *319:4 1.4
7 *319:2 *319:3 1.50432
8 *319:1 *319:2 0.0492869
9 *840:D *319:1 1.4
*END

*D_NET *320 0.000909228

*CONN
*I *839:D I *C 55.716 80.9715 *L 0.00276 *D SDFFRHQX1
*I *928:Y O *C 52.022 84.207 *L 0 *D INVX1

*CAP
1 *320:1 5.6922e-06
2 *320:2 1.00907e-05
3 *320:3 4.39852e-06
4 *320:4 1.63692e-05
5 *320:5 1.63692e-05
6 *320:6 0.000180081
7 *320:7 0.000180081
8 *320:8 0.000229215
9 *320:9 0.000229215
10 *320:10 1.70506e-05
11 *320:11 1.8859e-05
12 *320:12 1.80839e-06

*RES
1 *320:12 *928:Y 1.4
2 *320:11 *320:12 0.0150004
3 *320:10 *320:11 0.141432
4 *320:9 *320:10 1.4
5 *320:8 *320:9 1.73996
6 *320:7 *320:8 1.4
7 *320:6 *320:7 1.4914
8 *320:5 *320:6 1.4
9 *320:4 *320:5 0.124283
10 *320:3 *320:4 1.4
11 *320:2 *320:3 0.0364279
12 *320:1 *320:2 0.047142
13 *839:D *320:1 1.4
*END

*D_NET *321 0.000820673

*CONN
*I *838:D I *C 68.2475 80.492 *L 0.00276 *D SDFFRHQX1
*I *927:Y O *C 65.0105 83.608 *L 0 *D INVX1

*CAP
1 *321:1 2.32863e-06
2 *321:2 3.31183e-05
3 *321:3 3.07896e-05
4 *321:4 0.000180061
5 *321:5 0.000180061
6 *321:6 0.000192241
7 *321:7 0.000197157
8 *321:8 4.91599e-06

*RES
1 *321:8 *927:Y 1.4
2 *321:7 *321:8 0.0407136
3 *321:6 *321:7 1.59212
4 *321:5 *321:6 1.4
5 *321:4 *321:5 1.36711
6 *321:3 *321:4 1.4
7 *321:2 *321:3 0.254996
8 *321:1 *321:2 0.0192854
9 *838:D *321:1 1.4
*END

*D_NET *322 0.000222048

*CONN
*I *852:D I *C 45.62 14.432 *L 0.00276 *D SDFFRHQX1
*I *926:Y O *C 45.449 12.755 *L 0 *D INVX1

*CAP
1 *322:1 2.90268e-06
2 *322:2 6.86089e-06
3 *322:3 3.9582e-06
4 *322:4 1.62912e-05
5 *322:5 1.62912e-05
6 *322:6 8.44417e-05
7 *322:7 8.78721e-05
8 *322:8 3.43044e-06

*RES
1 *322:8 *926:Y 1.4
2 *322:7 *322:8 0.0278566
3 *322:6 *322:7 0.685702
4 *322:5 *322:6 1.4
5 *322:4 *322:5 0.124283
6 *322:3 *322:4 1.4
7 *322:2 *322:3 0.0321423
8 *322:1 *322:2 0.023571
9 *852:D *322:1 1.4
*END

*D_NET *323 2.7655e-05

*CONN
*I *909:A I *C 45.317 35.543 *L 0.00273 *D INVX1
*I *925:Y O *C 45.2725 35.448 *L 0 *D AOI222XL

*CAP
1 *323:1 3.51973e-06
2 *323:2 8.29651e-06
3 *323:3 1.03078e-05
4 *323:4 5.531e-06

*RES
1 *323:4 *925:Y 1.4
2 *323:3 *323:4 0.047144
3 *323:2 *323:3 0.0407153
4 *323:1 *323:2 0.0300007
5 *909:A *323:1 1.4
*END

*D_NET *324 0.000361989

*CONN
*I *908:A I *C 94.009 88.184 *L 0.00273 *D INVX1
*I *924:Y O *C 94.8535 90.2065 *L 0 *D AOI222XL

*CAP
1 *324:1 5.05236e-06
2 *324:2 1.14343e-05
3 *324:3 6.38193e-06
4 *324:4 1.61012e-05
5 *324:5 1.61012e-05
6 *324:6 0.000107961
7 *324:7 0.000107961
8 *324:8 3.22024e-05
9 *324:9 3.22024e-05
10 *324:10 6.91376e-06
11 *324:11 1.32957e-05
12 *324:12 6.38193e-06

*RES
1 *324:12 *924:Y 1.4
2 *324:11 *324:12 0.0514298
3 *324:10 *324:11 0.0557156
4 *324:9 *324:10 1.4
5 *324:8 *324:9 0.248566
6 *324:7 *324:8 1.4
7 *324:6 *324:7 0.870021
8 *324:5 *324:6 1.4
9 *324:4 *324:5 0.124283
10 *324:3 *324:4 1.4
11 *324:2 *324:3 0.0514298
12 *324:1 *324:2 0.0407153
13 *908:A *324:1 1.4
*END

*D_NET *325 0.000467876

*CONN
*I *907:A I *C 96.53 82.768 *L 0.00273 *D INVX1
*I *923:Y O *C 97.773 85.36 *L 0 *D AOI222XL

*CAP
1 *325:1 5.58419e-06
2 *325:2 6.91376e-06
3 *325:3 1.32957e-06
4 *325:4 6.44048e-05
5 *325:5 6.44048e-05
6 *325:6 0.000138807
7 *325:7 0.000138807
8 *325:8 1.61012e-05
9 *325:9 1.61012e-05
10 *325:10 2.39322e-06
11 *325:11 7.7115e-06
12 *325:12 5.31827e-06

*RES
1 *325:12 *923:Y 1.4
2 *325:11 *325:12 0.0428582
3 *325:10 *325:11 0.0192862
4 *325:9 *325:10 1.4
5 *325:8 *325:9 0.124283
6 *325:7 *325:8 1.4
7 *325:6 *325:7 1.1186
8 *325:5 *325:6 1.4
9 *325:4 *325:5 0.497132
10 *325:3 *325:4 1.4
11 *325:2 *325:3 0.0107145
12 *325:1 *325:2 0.0450011
13 *907:A *325:1 1.4
*END

*D_NET *326 0.000338857

*CONN
*I *906:A I *C 93.5295 65.435 *L 0.00273 *D INVX1
*I *922:Y O *C 95.549 66.6775 *L 0 *D AOI222XL

*CAP
1 *326:1 2.62803e-07
2 *326:2 2.86455e-05
3 *326:3 2.83827e-05
4 *326:4 0.000103465
5 *326:5 0.000103465
6 *326:6 3.70552e-05
7 *326:7 3.7318e-05
8 *326:8 2.62803e-07

*RES
1 *326:8 *922:Y 1.4
2 *326:7 *326:8 0.00214289
3 *326:6 *326:7 0.302147
4 *326:5 *326:6 1.4
5 *326:4 *326:5 0.869982
6 *326:3 *326:4 1.4
7 *326:2 *326:3 0.231432
8 *326:1 *326:2 0.00214289
9 *906:A *326:1 1.4
*END

*D_NET *327 0.000207201

*CONN
*I *905:A I *C 92.384 58.6255 *L 0.00273 *D INVX1
*I *921:Y O *C 93.7035 59.062 *L 0 *D AOI222XL

*CAP
1 *327:1 1.05121e-06
2 *327:2 6.30727e-06
3 *327:3 5.25606e-06
4 *327:4 7.39036e-05
5 *327:5 7.39036e-05
6 *327:6 1.76078e-05
7 *327:7 2.33895e-05
8 *327:8 5.78166e-06

*RES
1 *327:8 *921:Y 1.4
2 *327:7 *327:8 0.0471435
3 *327:6 *327:7 0.143573
4 *327:5 *327:6 1.4
5 *327:4 *327:5 0.621416
6 *327:3 *327:4 1.4
7 *327:2 *327:3 0.0428577
8 *327:1 *327:2 0.00857154
9 *905:A *327:1 1.4
*END

*D_NET *328 0.000222163

*CONN
*I *904:A I *C 93.95 45.1695 *L 0.00273 *D INVX1
*I *920:Y O *C 94.7925 46.173 *L 0 *D AOI222XL

*CAP
1 *328:1 7.01257e-06
2 *328:2 3.32448e-05
3 *328:3 2.62322e-05
4 *328:4 4.61505e-05
5 *328:5 4.61505e-05
6 *328:6 2.59725e-05
7 *328:7 3.16864e-05
8 *328:8 5.71395e-06

*RES
1 *328:8 *920:Y 1.4
2 *328:7 *328:8 0.0471417
3 *328:6 *328:7 0.21428
4 *328:5 *328:6 1.4
5 *328:4 *328:5 0.372863
6 *328:3 *328:4 1.4
7 *328:2 *328:3 0.216423
8 *328:1 *328:2 0.0578557
9 *904:A *328:1 1.4
*END

*D_NET *329 0.000135415

*CONN
*I *903:A I *C 94.17 34.682 *L 0.00273 *D INVX1
*I *919:Y O *C 94.8815 34.4225 *L 0 *D AOI222XL

*CAP
1 *329:1 3.37642e-06
2 *329:2 4.67505e-06
3 *329:3 1.29862e-06
4 *329:4 4.61505e-05
5 *329:5 4.61505e-05
6 *329:6 1.19473e-05
7 *329:7 1.68821e-05
8 *329:8 4.93477e-06

*RES
1 *329:8 *919:Y 1.4
2 *329:7 *329:8 0.0407133
3 *329:6 *329:7 0.098569
4 *329:5 *329:6 1.4
5 *329:4 *329:5 0.372863
6 *329:3 *329:4 1.4
7 *329:2 *329:3 0.010714
8 *329:1 *329:2 0.0278565
9 *903:A *329:1 1.4
*END

*D_NET *330 0.000667755

*CONN
*I *902:A I *C 76.3515 34.598 *L 0.00273 *D INVX1
*I *918:Y O *C 80.3765 32.4365 *L 0 *D AOI222XL

*CAP
1 *330:1 3.27051e-06
2 *330:2 0.000117235
3 *330:3 0.000113965
4 *330:4 0.000206253
5 *330:5 0.000206253
6 *330:6 5.1945e-06
7 *330:7 1.0389e-05
8 *330:8 5.1945e-06

*RES
1 *330:8 *918:Y 1.4
2 *330:7 *330:8 0.0428561
3 *330:6 *330:7 0.0428561
4 *330:5 *330:6 1.4
5 *330:4 *330:5 1.74
6 *330:3 *330:4 1.4
7 *330:2 *330:3 0.970691
8 *330:1 *330:2 0.0278565
9 *902:A *330:1 1.4
*END

*D_NET *331 0.000228218

*CONN
*I *901:A I *C 67.826 37.565 *L 0.00273 *D INVX1
*I *917:Y O *C 68.031 35.708 *L 0 *D AOI222XL

*CAP
1 *331:1 5.53471e-06
2 *331:2 4.98124e-05
3 *331:3 4.42777e-05
4 *331:4 1.39811e-05
5 *331:5 1.39811e-05
6 *331:6 4.90576e-05
7 *331:7 5.03155e-05
8 *331:8 1.25789e-06

*RES
1 *331:8 *917:Y 1.4
2 *331:7 *331:8 0.010714
3 *331:6 *331:7 0.417847
4 *331:5 *331:6 1.4
5 *331:4 *331:5 0.124283
6 *331:3 *331:4 1.4
7 *331:2 *331:3 0.377134
8 *331:1 *331:2 0.0471417
9 *901:A *331:1 1.4
*END

*D_NET *332 0.000232317

*CONN
*I *900:A I *C 68.15 46.5635 *L 0.00273 *D INVX1
*I *916:Y O *C 68.9585 45.32 *L 0 *D AOI222XL

*CAP
1 *332:1 7.29575e-06
2 *332:2 8.30206e-06
3 *332:3 1.00631e-06
4 *332:4 4.19433e-05
5 *332:5 4.19433e-05
6 *332:6 6.16365e-05
7 *332:7 6.59133e-05
8 *332:8 4.27682e-06

*RES
1 *332:8 *916:Y 1.4
2 *332:7 *332:8 0.0364277
3 *332:6 *332:7 0.524987
4 *332:5 *332:6 1.4
5 *332:4 *332:5 0.372848
6 *332:3 *332:4 1.4
7 *332:2 *332:3 0.00857122
8 *332:1 *332:2 0.0621413
9 *900:A *332:1 1.4
*END

*D_NET *333 0.000181714

*CONN
*I *899:A I *C 66.6975 60.4875 *L 0.00273 *D INVX1
*I *915:Y O *C 67.62 60.884 *L 0 *D AOI222XL

*CAP
1 *333:1 6.88945e-06
2 *333:2 8.07729e-06
3 *333:3 1.18784e-06
4 *333:4 5.83105e-05
5 *333:5 5.83105e-05
6 *333:6 1.99557e-05
7 *333:7 2.44694e-05
8 *333:8 4.51378e-06

*RES
1 *333:8 *915:Y 1.4
2 *333:7 *333:8 0.0407141
3 *333:6 *333:7 0.179999
4 *333:5 *333:6 1.4
5 *333:4 *333:5 0.497155
6 *333:3 *333:4 1.4
7 *333:2 *333:3 0.0107142
8 *333:1 *333:2 0.0621426
9 *899:A *333:1 1.4
*END

*D_NET *334 0.000267242

*CONN
*I *898:A I *C 46.3745 61.3725 *L 0.00273 *D INVX1
*I *914:Y O *C 47.378 62.1645 *L 0 *D AOI222XL

*CAP
1 *334:1 5.78478e-06
2 *334:2 5.9776e-05
3 *334:3 5.39913e-05
4 *334:4 5.62495e-05
5 *334:5 5.62495e-05
6 *334:6 1.59081e-05
7 *334:7 1.75954e-05
8 *334:8 1.68723e-06

*RES
1 *334:8 *914:Y 1.4
2 *334:7 *334:8 0.0149996
3 *334:6 *334:7 0.141425
4 *334:5 *334:6 1.4
5 *334:4 *334:5 0.497131
6 *334:3 *334:4 1.4
7 *334:2 *334:3 0.479988
8 *334:1 *334:2 0.0514273
9 *898:A *334:1 1.4
*END

*D_NET *335 0.000112321

*CONN
*I *897:A I *C 42.574 58.7925 *L 0.00273 *D INVX1
*I *913:Y O *C 42.347 59.731 *L 0 *D AOI222XL

*CAP
1 *335:1 4.33858e-06
2 *335:2 4.94116e-05
3 *335:3 5.1822e-05
4 *335:4 6.74891e-06

*RES
1 *335:4 *913:Y 1.4
2 *335:3 *335:4 0.0599985
3 *335:2 *335:3 0.400704
4 *335:1 *335:2 0.0385705
5 *897:A *335:1 1.4
*END

*D_NET *336 0.000196902

*CONN
*I *896:A I *C 42.957 41.951 *L 0.00273 *D INVX1
*I *912:Y O *C 42.126 42.8165 *L 0 *D AOI222XL

*CAP
1 *336:1 5.531e-06
2 *336:2 7.79369e-06
3 *336:3 2.26268e-06
4 *336:4 4.13811e-05
5 *336:5 4.13811e-05
6 *336:6 4.57565e-05
7 *336:7 4.92762e-05
8 *336:8 3.51973e-06

*RES
1 *336:8 *912:Y 1.4
2 *336:7 *336:8 0.0300007
3 *336:6 *336:7 0.390009
4 *336:5 *336:6 1.4
5 *336:4 *336:5 0.372848
6 *336:3 *336:4 1.4
7 *336:2 *336:3 0.0192862
8 *336:1 *336:2 0.047144
9 *896:A *336:1 1.4
*END

*D_NET *337 0.000187466

*CONN
*I *895:A I *C 46.8945 22.0075 *L 0.00273 *D INVX1
*I *911:Y O *C 47.793 21.3095 *L 0 *D AOI222XL

*CAP
1 *337:1 3.16656e-06
2 *337:2 2.45409e-05
3 *337:3 2.13743e-05
4 *337:4 4.88735e-05
5 *337:5 4.88735e-05
6 *337:6 1.55689e-05
7 *337:7 2.03188e-05
8 *337:8 4.74984e-06

*RES
1 *337:8 *911:Y 1.4
2 *337:7 *337:8 0.0385707
3 *337:6 *337:7 0.126426
4 *337:5 *337:6 1.4
5 *337:4 *337:5 0.372848
6 *337:3 *337:4 1.4
7 *337:2 *337:3 0.173568
8 *337:1 *337:2 0.0257138
9 *895:A *337:1 1.4
*END

*D_NET *338 0.000261127

*CONN
*I *894:A I *C 80.1435 87.6375 *L 0.00273 *D INVX1
*I *910:Y O *C 80.0475 89.9185 *L 0 *D AOI222XL

*CAP
1 *338:1 2.12731e-06
2 *338:2 0.000123384
3 *338:3 0.000128436
4 *338:4 7.17967e-06

*RES
1 *338:4 *910:Y 1.4
2 *338:3 *338:4 0.0578586
3 *338:2 *338:3 0.977167
4 *338:1 *338:2 0.0171433
5 *894:A *338:1 1.4
*END

*D_NET *339 0.000286133

*CONN
*I *854:D I *C 47.779 34.7115 *L 0.00276 *D SDFFRHQX1
*I *909:Y O *C 45.6895 35.543 *L 0 *D INVX1

*CAP
1 *339:1 3.77114e-06
2 *339:2 3.01691e-05
3 *339:3 2.6398e-05
4 *339:4 9.6556e-05
5 *339:5 9.6556e-05
6 *339:6 1.55874e-05
7 *339:7 1.63416e-05
8 *339:8 7.54228e-07

*RES
1 *339:8 *909:Y 1.4
2 *339:7 *339:8 0.00642873
3 *339:6 *339:7 0.13286
4 *339:5 *339:6 1.4
5 *339:4 *339:5 0.869979
6 *339:3 *339:4 1.4
7 *339:2 *339:3 0.225005
8 *339:1 *339:2 0.0321436
9 *854:D *339:1 1.4
*END

*D_NET *340 0.000500503

*CONN
*I *835:D I *C 94.839 84.597 *L 0.00276 *D SDFFRHQX1
*I *908:Y O *C 94.3815 88.184 *L 0 *D INVX1

*CAP
1 *340:1 7.17967e-06
2 *340:2 1.03706e-05
3 *340:3 3.19096e-06
4 *340:4 1.61012e-05
5 *340:5 1.61012e-05
6 *340:6 0.000200499
7 *340:7 0.000200499
8 *340:8 1.61012e-05
9 *340:9 1.61012e-05
10 *340:10 6.38193e-06
11 *340:11 7.17967e-06
12 *340:12 7.97741e-07

*RES
1 *340:12 *908:Y 1.4
2 *340:11 *340:12 0.00642873
3 *340:10 *340:11 0.0514298
4 *340:9 *340:10 1.4
5 *340:8 *340:9 0.124283
6 *340:7 *340:8 1.4
7 *340:6 *340:7 1.61575
8 *340:5 *340:6 1.4
9 *340:4 *340:5 0.124283
10 *340:3 *340:4 1.4
11 *340:2 *340:3 0.0257149
12 *340:1 *340:2 0.0578586
13 *835:D *340:1 1.4
*END

*D_NET *341 0.000484256

*CONN
*I *834:D I *C 96.8155 78.749 *L 0.00276 *D SDFFRHQX1
*I *907:Y O *C 96.9025 82.768 *L 0 *D INVX1

*CAP
1 *341:1 5.31827e-06
2 *341:2 6.11601e-06
3 *341:3 7.97741e-07
4 *341:4 1.61012e-05
5 *341:5 1.61012e-05
6 *341:6 0.000214592
7 *341:7 0.000219911
8 *341:8 5.31827e-06

*RES
1 *341:8 *907:Y 1.4
2 *341:7 *341:8 0.0428582
3 *341:6 *341:7 1.72933
4 *341:5 *341:6 1.4
5 *341:4 *341:5 0.124283
6 *341:3 *341:4 1.4
7 *341:2 *341:3 0.00642873
8 *341:1 *341:2 0.0428582
9 *834:D *341:1 1.4
*END

*D_NET *342 0.000296171

*CONN
*I *833:D I *C 94.3025 63.9525 *L 0.00276 *D SDFFRHQX1
*I *906:Y O *C 93.902 65.435 *L 0 *D INVX1

*CAP
1 *342:1 4.73045e-06
2 *342:2 2.04986e-05
3 *342:3 1.57682e-05
4 *342:4 2.95614e-05
5 *342:5 2.95614e-05
6 *342:6 9.35578e-05
7 *342:7 9.80255e-05
8 *342:8 4.46765e-06

*RES
1 *342:8 *906:Y 1.4
2 *342:7 *342:8 0.036429
3 *342:6 *342:7 0.762867
4 *342:5 *342:6 1.4
5 *342:4 *342:5 0.248566
6 *342:3 *342:4 1.4
7 *342:2 *342:3 0.128573
8 *342:1 *342:2 0.0385719
9 *833:D *342:1 1.4
*END

*D_NET *343 0.000704153

*CONN
*I *832:D I *C 93.996 57.3445 *L 0.00276 *D SDFFRHQX1
*I *905:Y O *C 92.7565 58.6255 *L 0 *D INVX1

*CAP
1 *343:1 5.78166e-06
2 *343:2 8.56737e-05
3 *343:3 7.98921e-05
4 *343:4 8.86843e-05
5 *343:5 8.86843e-05
6 *343:6 0.000152426
7 *343:7 0.000152426
8 *343:8 1.47807e-05
9 *343:9 1.47807e-05
10 *343:10 5.25606e-06
11 *343:11 1.05121e-05
12 *343:12 5.25606e-06

*RES
1 *343:12 *905:Y 1.4
2 *343:11 *343:12 0.0428577
3 *343:10 *343:11 0.0428577
4 *343:9 *343:10 1.4
5 *343:8 *343:9 0.124283
6 *343:7 *343:8 1.4
7 *343:6 *343:7 1.24287
8 *343:5 *343:6 1.4
9 *343:4 *343:5 0.745699
10 *343:3 *343:4 1.4
11 *343:2 *343:3 0.651437
12 *343:1 *343:2 0.0471435
13 *832:D *343:1 1.4
*END

*D_NET *344 0.000310589

*CONN
*I *831:D I *C 95.695 43.7145 *L 0.00276 *D SDFFRHQX1
*I *904:Y O *C 94.3225 45.1695 *L 0 *D INVX1

*CAP
1 *344:1 7.2723e-06
2 *344:2 1.09084e-05
3 *344:3 3.63615e-06
4 *344:4 1.53835e-05
5 *344:5 1.53835e-05
6 *344:6 7.53202e-05
7 *344:7 7.53202e-05
8 *344:8 4.61505e-05
9 *344:9 4.61505e-05
10 *344:10 3.89587e-06
11 *344:11 7.53202e-06
12 *344:12 3.63615e-06

*RES
1 *344:12 *904:Y 1.4
2 *344:11 *344:12 0.0299993
3 *344:10 *344:11 0.0321421
4 *344:9 *344:10 1.4
5 *344:8 *344:9 0.372863
6 *344:7 *344:8 1.4
7 *344:6 *344:7 0.621413
8 *344:5 *344:6 1.4
9 *344:4 *344:5 0.124288
10 *344:3 *344:4 1.4
11 *344:2 *344:3 0.0299993
12 *344:1 *344:2 0.0599985
13 *831:D *344:1 1.4
*END

*D_NET *345 0.000145804

*CONN
*I *830:D I *C 95.644 34.927 *L 0.00276 *D SDFFRHQX1
*I *903:Y O *C 94.5425 34.682 *L 0 *D INVX1

*CAP
1 *345:1 4.67505e-06
2 *345:2 5.71395e-06
3 *345:3 1.0389e-06
4 *345:4 4.61505e-05
5 *345:5 4.61505e-05
6 *345:6 1.37654e-05
7 *345:7 2.10377e-05
8 *345:8 7.2723e-06

*RES
1 *345:8 *903:Y 1.4
2 *345:7 *345:8 0.0599985
3 *345:6 *345:7 0.113569
4 *345:5 *345:6 1.4
5 *345:4 *345:5 0.372863
6 *345:3 *345:4 1.4
7 *345:2 *345:3 0.00857122
8 *345:1 *345:2 0.0385705
9 *830:D *345:1 1.4
*END

*D_NET *346 0.000191991

*CONN
*I *829:D I *C 76.396 36.0215 *L 0.00276 *D SDFFRHQX1
*I *902:Y O *C 76.724 34.598 *L 0 *D INVX1

*CAP
1 *346:1 1.00631e-06
2 *346:2 5.28313e-06
3 *346:3 4.27682e-06
4 *346:4 1.39811e-05
5 *346:5 1.39811e-05
6 *346:6 7.57249e-05
7 *346:7 7.67312e-05
8 *346:8 1.00631e-06

*RES
1 *346:8 *902:Y 1.4
2 *346:7 *346:8 0.00857122
3 *346:6 *346:7 0.644984
4 *346:5 *346:6 1.4
5 *346:4 *346:5 0.124283
6 *346:3 *346:4 1.4
7 *346:2 *346:3 0.0364277
8 *346:1 *346:2 0.00857122
9 *829:D *346:1 1.4
*END

*D_NET *347 0.000356242

*CONN
*I *860:D I *C 70.469 38.918 *L 0.00276 *D SDFFRHQX1
*I *901:Y O *C 68.1985 37.565 *L 0 *D INVX1

*CAP
1 *347:1 7.29575e-06
2 *347:2 4.67934e-05
3 *347:3 3.94977e-05
4 *347:4 9.78678e-05
5 *347:5 9.78678e-05
6 *347:6 2.86799e-05
7 *347:7 3.34598e-05
8 *347:8 4.77998e-06

*RES
1 *347:8 *901:Y 1.4
2 *347:7 *347:8 0.0407133
3 *347:6 *347:7 0.24428
4 *347:5 *347:6 1.4
5 *347:4 *347:5 0.869979
6 *347:3 *347:4 1.4
7 *347:2 *347:3 0.33642
8 *347:1 *347:2 0.0621413
9 *860:D *347:1 1.4
*END

*D_NET *348 0.000300821

*CONN
*I *859:D I *C 69.99 47.969 *L 0.00276 *D SDFFRHQX1
*I *900:Y O *C 68.5225 46.5635 *L 0 *D INVX1

*CAP
1 *348:1 2.2642e-06
2 *348:2 3.52209e-06
3 *348:3 1.25789e-06
4 *348:4 4.19433e-05
5 *348:5 4.19433e-05
6 *348:6 7.29575e-05
7 *348:7 7.29575e-05
8 *348:8 2.79622e-05
9 *348:9 2.79622e-05
10 *348:10 1.00631e-06
11 *348:11 4.02524e-06
12 *348:12 3.01893e-06

*RES
1 *348:12 *900:Y 1.4
2 *348:11 *348:12 0.0257137
3 *348:10 *348:11 0.00857122
4 *348:9 *348:10 1.4
5 *348:8 *348:9 0.248565
6 *348:7 *348:8 1.4
7 *348:6 *348:7 0.621413
8 *348:5 *348:6 1.4
9 *348:4 *348:5 0.372848
10 *348:3 *348:4 1.4
11 *348:2 *348:3 0.010714
12 *348:1 *348:2 0.0192852
13 *859:D *348:1 1.4
*END

*D_NET *349 0.000197525

*CONN
*I *858:D I *C 67.7495 59.1245 *L 0.00276 *D SDFFRHQX1
*I *899:Y O *C 67.07 60.4875 *L 0 *D INVX1

*CAP
1 *349:1 1.66297e-06
2 *349:2 6.5331e-05
3 *349:3 6.3668e-05
4 *349:4 2.91552e-05
5 *349:5 2.91552e-05
6 *349:6 1.18784e-06
7 *349:7 4.27621e-06
8 *349:8 3.08838e-06

*RES
1 *349:8 *899:Y 1.4
2 *349:7 *349:8 0.027857
3 *349:6 *349:7 0.0107142
4 *349:5 *349:6 1.4
5 *349:4 *349:5 0.248577
6 *349:3 *349:4 1.4
7 *349:2 *349:3 0.574283
8 *349:1 *349:2 0.0149999
9 *858:D *349:1 1.4
*END

*D_NET *350 0.000343256

*CONN
*I *857:D I *C 48.71 59.7915 *L 0.00276 *D SDFFRHQX1
*I *898:Y O *C 46.747 61.3725 *L 0 *D INVX1

*CAP
1 *350:1 6.50787e-06
2 *350:2 1.10875e-05
3 *350:3 4.57962e-06
4 *350:4 8.43742e-05
5 *350:5 8.43742e-05
6 *350:6 7.18277e-05
7 *350:7 7.61662e-05
8 *350:8 4.33858e-06

*RES
1 *350:8 *898:Y 1.4
2 *350:7 *350:8 0.0385705
3 *350:6 *350:7 0.638556
4 *350:5 *350:6 1.4
5 *350:4 *350:5 0.745696
6 *350:3 *350:4 1.4
7 *350:2 *350:3 0.0407133
8 *350:1 *350:2 0.0578557
9 *857:D *350:1 1.4
*END

*D_NET *351 0.000473908

*CONN
*I *856:D I *C 45.819 56.7685 *L 0.00276 *D SDFFRHQX1
*I *897:Y O *C 42.9465 58.7925 *L 0 *D INVX1

*CAP
1 *351:1 6.98994e-06
2 *351:2 0.000101234
3 *351:3 9.42437e-05
4 *351:4 0.000126561
5 *351:5 0.000126561
6 *351:6 3.37445e-06
7 *351:7 9.15923e-06
8 *351:8 5.78478e-06

*RES
1 *351:8 *897:Y 1.4
2 *351:7 *351:8 0.0514273
3 *351:6 *351:7 0.0299993
4 *351:5 *351:6 1.4
5 *351:4 *351:5 1.11854
6 *351:3 *351:4 1.4
7 *351:2 *351:3 0.837837
8 *351:1 *351:2 0.0621413
9 *856:D *351:1 1.4
*END

*D_NET *352 0.000429166

*CONN
*I *855:D I *C 46.4055 40.867 *L 0.00276 *D SDFFRHQX1
*I *896:Y O *C 43.3295 41.951 *L 0 *D INVX1

*CAP
1 *352:1 7.03946e-06
2 *352:2 5.93326e-05
3 *352:3 5.22931e-05
4 *352:4 0.000151731
5 *352:5 0.000151731
6 *352:6 2.26268e-06
7 *352:7 3.51973e-06
8 *352:8 1.25705e-06

*RES
1 *352:8 *896:Y 1.4
2 *352:7 *352:8 0.0107145
3 *352:6 *352:7 0.0192862
4 *352:5 *352:6 1.4
5 *352:4 *352:5 1.36711
6 *352:3 *352:4 1.4
7 *352:2 *352:3 0.445725
8 *352:1 *352:2 0.0600015
9 *855:D *352:1 1.4
*END

*D_NET *353 0.000169911

*CONN
*I *853:D I *C 48.254 22.214 *L 0.00276 *D SDFFRHQX1
*I *895:Y O *C 47.267 22.0075 *L 0 *D INVX1

*CAP
1 *353:1 1.58328e-06
2 *353:2 3.16656e-06
3 *353:3 1.58328e-06
4 *353:4 6.51647e-05
5 *353:5 6.51647e-05
6 *353:6 9.23581e-06
7 *353:7 1.66245e-05
8 *353:8 7.38865e-06

*RES
1 *353:8 *895:Y 1.4
2 *353:7 *353:8 0.0599989
3 *353:6 *353:7 0.0749986
4 *353:5 *353:6 1.4
5 *353:4 *353:5 0.497131
6 *353:3 *353:4 1.4
7 *353:2 *353:3 0.0128569
8 *353:1 *353:2 0.0128569
9 *853:D *353:1 1.4
*END

*D_NET *354 0.000784421

*CONN
*I *836:D I *C 83.0575 84.384 *L 0.00276 *D SDFFRHQX1
*I *894:Y O *C 80.516 87.6375 *L 0 *D INVX1

*CAP
1 *354:1 1.32957e-06
2 *354:2 0.000209806
3 *354:3 0.000208476
4 *354:4 0.000144911
5 *354:5 0.000144911
6 *354:6 3.53665e-05
7 *354:7 3.74938e-05
8 *354:8 2.12731e-06

*RES
1 *354:8 *894:Y 1.4
2 *354:7 *354:8 0.0171433
3 *354:6 *354:7 0.285007
4 *354:5 *354:6 1.4
5 *354:4 *354:5 1.11855
6 *354:3 *354:4 1.4
7 *354:2 *354:3 1.68004
8 *354:1 *354:2 0.0107145
9 *836:D *354:1 1.4
*END

*D_NET *355 0.0390118

*CONN
*I *891:B I *C 46.013 61.001 *L 0.00172 *D AND2X1
*I *887:B I *C 43.014 42.0635 *L 0.00172 *D AND2X1
*I *888:B I *C 42.349 58.193 *L 0.00172 *D AND2X1
*I *886:B I *C 44.796 36.0945 *L 0.00172 *D AND2X1
*I *885:B I *C 45.8865 24.923 *L 0.00172 *D AND2X1
*I *884:B I *C 43.5985 16.5005 *L 0.00172 *D AND2X1
*I *883:B I *C 31.7365 15.643 *L 0.00172 *D AND2X1
*I *882:B I *C 19.113 17.2335 *L 0.00172 *D AND2X1
*I *880:B I *C 19.2685 36.1165 *L 0.00172 *D AND2X1
*I *881:B I *C 17.78 26.4335 *L 0.00172 *D AND2X1
*I *879:B I *C 20.39 42.5945 *L 0.00172 *D AND2X1
*I *878:B I *C 21.107 56.712 *L 0.00172 *D AND2X1
*I *892:B I *C 20.946 62.9735 *L 0.00172 *D AND2X1
*I *861:B I *C 19.2115 70.1955 *L 0.00172 *D AND2X1
*I *874:B I *C 18.5065 80.7385 *L 0.00172 *D AND2X1
*I *875:B I *C 25.026 83.937 *L 0.00172 *D AND2X1
*I *873:B I *C 36.5975 81.9385 *L 0.00172 *D AND2X1
*I *872:B I *C 42.7335 80.446 *L 0.00172 *D AND2X1
*I *871:B I *C 52.79 80.4145 *L 0.00172 *D AND2X1
*I *870:B I *C 64.703 79.4065 *L 0.00172 *D AND2X1
*I *889:B I *C 66.143 60.5195 *L 0.00172 *D AND2X1
*I *869:B I *C 69.7815 79.9855 *L 0.00172 *D AND2X1
*I *890:B I *C 67.998 54.5125 *L 0.00172 *D AND2X1
*I *877:B I *C 68.0455 39.5425 *L 0.00172 *D AND2X1
*I *868:B I *C 77.2645 82.364 *L 0.00172 *D AND2X1
*I *866:B I *C 88.395 83.562 *L 0.00172 *D AND2X1
*I *893:Y O *C 71.2145 15.777 *L 0 *D OR3X1
*I *864:B I *C 88.7885 64.8135 *L 0.00172 *D AND2X1
*I *865:B I *C 91.437 76.0275 *L 0.00172 *D AND2X1
*I *863:B I *C 88.5135 58.9025 *L 0.00172 *D AND2X1
*I *862:B I *C 90.9765 44.091 *L 0.00172 *D AND2X1
*I *867:B I *C 87.5025 26.1475 *L 0.00172 *D AND2X1
*I *876:B I *C 92.3215 33.1685 *L 0.00172 *D AND2X1

*CAP
1 *355:1 2.41032e-06
2 *355:2 4.57962e-06
3 *355:3 2.16929e-06
4 *355:4 2.81247e-05
5 *355:5 2.81247e-05
6 *355:6 6.98994e-05
7 *355:7 6.98994e-05
8 *355:8 0.000168748
9 *355:9 0.000168748
10 *355:10 6.98994e-05
11 *355:11 0.000866094
12 *355:12 2.81247e-05
13 *355:13 0.0011542
14 *355:14 2.81247e-05
15 *355:16 0.000358007
16 *355:17 2.41032e-06
17 *355:18 2.51409e-06
18 *355:19 8.27623e-05
19 *355:20 8.9182e-06
20 *355:21 2.51409e-06
21 *355:22 0.000137937
22 *355:23 6.50787e-06
23 *355:25 5.51748e-05
24 *355:26 5.78241e-05
25 *355:28 0.000506755
26 *355:29 5.8327e-05
27 *355:30 0.000548448
28 *355:31 5.02819e-07
29 *355:32 4.22208e-06
30 *355:33 3.7471e-05
31 *355:36 0.000130329
32 *355:37 0.000130329
33 *355:38 0.000382626
34 *355:39 0.000407167
35 *355:40 0.000667938
36 *355:41 2.69158e-05
37 *355:42 0.000667938
38 *355:43 2.37492e-06
39 *355:44 3.06101e-05
40 *355:46 6.96644e-05
41 *355:47 0.000701291
42 *355:48 4.01098e-05
43 *355:49 0.000701291
44 *355:50 1.05552e-06
45 *355:51 4.32449e-05
46 *355:53 0.000538031
47 *355:54 0.000488681
48 *355:55 6.10517e-06
49 *355:56 7.40501e-05
50 *355:58 1.481e-05
51 *355:59 5.92401e-05
52 *355:60 0.000482586
53 *355:61 2.02593e-05
54 *355:62 0.000814266
55 *355:63 2.31163e-05
56 *355:64 0.000336615
57 *355:65 7.79202e-07
58 *355:66 2.85707e-06
59 *355:67 5.71415e-06
60 *355:68 5.92401e-05
61 *355:72 5.92401e-05
62 *355:73 0.000677487
63 *355:74 5.71415e-06
64 *355:75 0.000677487
65 *355:76 8.57122e-06
66 *355:77 9.3315e-05
67 *355:78 2.85707e-06
68 *355:79 9.3315e-05
69 *355:81 6.29031e-05
70 *355:82 0.00040258
71 *355:83 0.000608956
72 *355:84 4.28277e-06
73 *355:85 0.000269279
74 *355:86 4.28277e-06
75 *355:88 9.3315e-05
76 *355:90 9.3315e-05
77 *355:91 0.000117241
78 *355:92 0.000684907
79 *355:93 0.000563651
80 *355:94 4.01509e-06
81 *355:95 0.000291898
82 *355:97 0.000245809
83 *355:98 4.60891e-05
84 *355:99 7.63253e-05
85 *355:100 1.31595e-06
86 *355:101 7.63253e-05
87 *355:102 6.05338e-06
88 *355:103 6.14521e-05
89 *355:104 4.73743e-06
90 *355:105 0.000716082
91 *355:107 0.00065463
92 *355:108 9.05376e-05
93 *355:109 1.42088e-05
94 *355:110 9.36959e-05
95 *355:111 9.42948e-05
96 *355:112 3.15829e-06
97 *355:113 4.39181e-06
98 *355:114 7.56942e-05
99 *355:117 0.0003457
100 *355:118 0.000921634
101 *355:119 0.00124707
102 *355:120 1.55005e-06
103 *355:121 0.000752982
104 *355:122 3.10484e-06
105 *355:123 3.61679e-06
106 *355:124 8.18459e-05
107 *355:125 5.53696e-05
108 *355:126 1.00907e-05
109 *355:127 2.06673e-06
110 *355:128 6.00268e-05
111 *355:129 6.10618e-05
112 *355:130 6.98588e-06
113 *355:132 0.00095734
114 *355:133 5.6922e-06
115 *355:135 0.00019643
116 *355:136 0.00118928
117 *355:138 0.00019643
118 *355:140 0.00029197
119 *355:141 3.46707e-05
120 *355:142 5.70162e-06
121 *355:143 8.74657e-05
122 *355:144 3.64818e-05
123 *355:145 5.70162e-06
124 *355:146 8.74657e-05
125 *355:148 1.81115e-06
126 *355:150 6.65189e-06
127 *355:151 0.000738072
128 *355:152 0.000130403
129 *355:154 6.88945e-06
130 *355:155 0.000738072
131 *355:156 0.000130403
132 *355:157 2.37567e-07
133 *355:158 0.000153792
134 *355:159 0.000425599
135 *355:161 0.000153792
136 *355:162 2.01262e-06
137 *355:163 0.00103838
138 *355:164 0.00118128
139 *355:165 4.02524e-06
140 *355:166 0.000628884
141 *355:167 7.24462e-06
142 *355:168 0.00118128
143 *355:169 2.01262e-06
144 *355:170 1.61012e-05
145 *355:171 5.61078e-05
146 *355:172 8.27956e-06
147 *355:175 0.00032271
148 *355:176 6.08942e-05
149 *355:177 1.03495e-06
150 *355:178 9.73903e-07
151 *355:179 0.00032271
152 *355:180 4.78645e-06
153 *355:182 9.73903e-07
154 *355:183 1.47807e-05
155 *355:186 1.47807e-05
156 *355:187 1.52426e-05
157 *355:188 0.000609703
158 *355:189 0.000133026
159 *355:190 0.000853584
160 *355:191 0.000133026
161 *355:193 0.000259124
162 *355:194 4.99325e-06
163 *355:195 4.99325e-06
164 *355:196 0.000118246
165 *355:197 8.14689e-06
166 *355:198 4.99325e-06
167 *355:199 0.000103465
168 *355:200 1.47807e-05
169 *355:201 3.15363e-06
170 *355:203 0.000825202
171 *355:204 5.15094e-05
172 *355:206 0.00139062
173 *355:207 5.57142e-05
174 *355:209 0.000655806
175 *355:210 4.20485e-06
176 *355:211 3.1167e-06
177 *355:212 7.69175e-05
178 *355:213 9.03843e-05
179 *355:215 3.1167e-06
180 *355:216 7.69175e-05
181 *355:217 0.000184602
182 *355:219 1.81807e-06
183 *355:220 0.000184602
184 *355:221 1.81807e-06
185 *355:222 0.000276088
186 *355:224 0.000279724
187 *355:225 2.33752e-06
188 *355:226 3.63615e-06
189 *355:227 2.33752e-06

*RES
1 *355:227 *876:B 1.4
2 *355:226 *867:B 1.4
3 *355:225 *355:227 0.0192852
4 *355:224 *355:226 0.0299993
5 *355:223 *355:225 1.4
6 *355:222 *355:224 2.2778
7 *355:221 *355:223 1.4
8 *355:220 *355:222 1.4
9 *355:219 *355:221 0.0149996
10 *355:217 *355:220 1.49145
11 *355:216 *355:219 1.4
12 *355:215 *862:B 1.4
13 *355:213 *355:217 1.4
14 *355:212 *355:216 0.621439
15 *355:211 *355:215 0.0257137
16 *355:210 *863:B 1.4
17 *355:209 *355:213 0.745696
18 *355:209 *355:212 1.4
19 *355:208 *355:211 1.4
20 *355:207 *355:210 0.0342862
21 *355:206 *355:209 4.66489
22 *355:206 *355:208 1.4
23 *355:204 *355:207 0.420005
24 *355:203 *355:206 6.76924
25 *355:201 *865:B 1.4
26 *355:200 *355:204 1.4
27 *355:199 *355:203 1.4
28 *355:198 *864:B 1.4
29 *355:197 *355:201 0.0257146
30 *355:196 *355:200 0.124283
31 *355:196 *355:199 0.869982
32 *355:195 *355:198 0.0407148
33 *355:194 *355:197 0.0407148
34 *355:193 *355:196 1.4
35 *355:192 *355:195 1.4
36 *355:191 *355:194 1.4
37 *355:190 *355:193 2.11288
38 *355:190 *355:192 1.4
39 *355:189 *355:191 1.11855
40 *355:188 *355:190 4.84721
41 *355:188 *355:189 1.4
42 *355:187 *355:188 0.124287
43 *355:186 *355:187 1.4
44 *355:183 *355:186 0.124283
45 *355:182 *893:Y 1.4
46 *355:180 *866:B 1.4
47 *355:179 *355:183 1.4
48 *355:178 *355:182 0.00857122
49 *355:177 *868:B 1.4
50 *355:176 *355:180 0.0385724
51 *355:175 *355:179 2.61005
52 *355:173 *355:178 1.4
53 *355:172 *355:177 0.00857128
54 *355:171 *355:176 0.452154
55 *355:170 *355:175 1.4
56 *355:169 *877:B 1.4
57 *355:168 *355:173 1.4
58 *355:167 *355:172 0.059999
59 *355:166 *355:171 1.4
60 *355:166 *355:170 0.124283
61 *355:165 *355:169 0.0171424
62 *355:164 *355:168 10.204
63 *355:163 *355:167 1.4
64 *355:163 *355:166 4.72275
65 *355:162 *355:165 0.0171424
66 *355:161 *355:164 1.4
67 *355:159 *355:163 3.23136
68 *355:158 *355:162 1.4
69 *355:158 *355:161 1.36711
70 *355:157 *890:B 1.4
71 *355:156 *355:159 1.4
72 *355:155 *355:158 1.4
73 *355:154 *355:157 0.00214285
74 *355:152 *355:156 1.07998
75 *355:151 *355:155 6.33844
76 *355:150 *355:154 0.0599998
77 *355:148 *869:B 1.4
78 *355:147 *355:152 1.4
79 *355:146 *355:151 1.4
80 *355:146 *355:150 1.4
81 *355:145 *889:B 1.4
82 *355:144 *355:148 0.0149997
83 *355:144 *355:147 1.4
84 *355:143 *355:146 0.745732
85 *355:142 *355:145 0.0514284
86 *355:141 *355:144 0.287138
87 *355:140 *355:143 1.4
88 *355:139 *355:142 1.4
89 *355:138 *355:141 1.4
90 *355:136 *355:140 2.63356
91 *355:136 *355:139 1.4
92 *355:135 *355:138 1.4914
93 *355:133 *870:B 1.4
94 *355:132 *355:136 8.05496
95 *355:132 *355:135 1.4
96 *355:130 *871:B 1.4
97 *355:129 *355:133 0.047142
98 *355:128 *355:132 0.497134
99 *355:127 *872:B 1.4
100 *355:126 *355:130 0.0578561
101 *355:125 *355:129 0.458563
102 *355:124 *355:128 1.4
103 *355:123 *355:127 0.0171433
104 *355:122 *355:126 0.0257138
105 *355:121 *355:125 1.4
106 *355:121 *355:124 0.621415
107 *355:120 *355:123 0.0128575
108 *355:119 *355:122 1.4
109 *355:119 *355:121 5.0956
110 *355:118 *355:120 1.4
111 *355:118 *355:119 4.35009
112 *355:117 *355:118 2.61006
113 *355:114 *355:117 1.4
114 *355:113 *873:B 1.4
115 *355:112 *875:B 1.4
116 *355:111 *355:114 0.627873
117 *355:111 *355:113 0.0364295
118 *355:110 *355:112 0.0257148
119 *355:109 *355:111 0.11786
120 *355:108 *355:110 0.737158
121 *355:107 *355:109 1.4
122 *355:105 *355:108 1.4
123 *355:105 *355:107 4.97153
124 *355:104 *874:B 1.4
125 *355:103 *355:105 0.497132
126 *355:102 *355:104 0.0385722
127 *355:101 *355:103 1.4
128 *355:100 *355:102 0.0107145
129 *355:99 *355:101 0.621442
130 *355:98 *355:100 1.4
131 *355:97 *355:99 1.4
132 *355:95 *355:98 0.372849
133 *355:95 *355:97 1.98853
134 *355:94 *861:B 1.4
135 *355:93 *355:95 1.4
136 *355:92 *355:94 0.0321424
137 *355:92 *355:93 4.52997
138 *355:91 *355:92 0.938557
139 *355:90 *355:91 1.4
140 *355:88 *355:90 0.745698
141 *355:86 *892:B 1.4
142 *355:85 *355:88 1.4
143 *355:84 *878:B 1.4
144 *355:83 *355:86 0.0342852
145 *355:83 *355:85 2.15568
146 *355:82 *355:84 0.0342852
147 *355:82 *355:83 2.68496
148 *355:81 *355:82 0.503564
149 *355:79 *355:81 1.4
150 *355:78 *879:B 1.4
151 *355:77 *355:79 0.745698
152 *355:76 *355:78 0.0235709
153 *355:75 *355:77 1.4
154 *355:74 *355:76 0.0471417
155 *355:73 *355:75 5.54559
156 *355:72 *355:74 1.4
157 *355:71 *355:73 1.4
158 *355:68 *355:72 0.497133
159 *355:67 *355:71 1.4
160 *355:66 *881:B 1.4
161 *355:65 *880:B 1.4
162 *355:64 *355:68 1.4
163 *355:64 *355:67 0.0471417
164 *355:63 *355:66 0.0235709
165 *355:62 *355:65 0.00642841
166 *355:62 *355:64 2.72993
167 *355:61 *355:63 0.167139
168 *355:60 *355:62 3.98133
169 *355:59 *355:61 1.4
170 *355:58 *355:60 1.4
171 *355:56 *355:59 0.497133
172 *355:56 *355:58 0.124283
173 *355:55 *882:B 1.4
174 *355:54 *355:56 1.4
175 *355:53 *355:55 0.0514278
176 *355:53 *355:54 4.10994
177 *355:51 *355:53 0.36428
178 *355:50 *883:B 1.4
179 *355:49 *355:51 1.4
180 *355:48 *355:50 0.00857127
181 *355:47 *355:49 5.46859
182 *355:46 *355:48 0.317137
183 *355:46 *355:47 1.4
184 *355:44 *355:46 0.248567
185 *355:43 *884:B 1.4
186 *355:42 *355:44 1.4
187 *355:41 *355:43 0.0192854
188 *355:40 *355:42 5.09559
189 *355:39 *355:41 0.199282
190 *355:39 *355:40 1.4
191 *355:38 *355:39 3.10709
192 *355:37 *355:38 1.4
193 *355:36 *355:37 0.994261
194 *355:33 *355:36 1.4
195 *355:32 *885:B 1.4
196 *355:31 *886:B 1.4
197 *355:30 *355:33 0.30428
198 *355:30 *355:32 0.0342851
199 *355:29 *355:31 0.00428582
200 *355:28 *355:30 4.29437
201 *355:26 *355:29 0.492869
202 *355:25 *355:28 1.4
203 *355:23 *888:B 1.4
204 *355:22 *355:26 1.4
205 *355:22 *355:25 0.497131
206 *355:21 *887:B 1.4
207 *355:20 *355:23 0.0578557
208 *355:19 *355:22 0.745696
209 *355:18 *355:21 0.0214291
210 *355:17 *355:20 0.021428
211 *355:16 *355:19 1.4
212 *355:15 *355:18 1.4
213 *355:14 *355:17 1.4
214 *355:13 *355:16 3.0515
215 *355:13 *355:15 1.4
216 *355:12 *355:14 0.248565
217 *355:11 *355:13 6.89147
218 *355:11 *355:12 1.4
219 *355:10 *355:11 0.621413
220 *355:9 *355:10 1.4
221 *355:8 *355:9 1.49139
222 *355:7 *355:8 1.4
223 *355:6 *355:7 0.621413
224 *355:5 *355:6 1.4
225 *355:4 *355:5 0.248565
226 *355:3 *355:4 1.4
227 *355:2 *355:3 0.0192852
228 *355:1 *355:2 0.021428
229 *891:B *355:1 1.4
*END

*D_NET *356 0.000455538

*CONN
*I *813:D I *C 24.7495 63.531 *L 0.00276 *D SDFFRHQX1
*I *892:Y O *C 22.106 62.3935 *L 0 *D AND2X1

*CAP
1 *356:1 2.40906e-06
2 *356:2 7.33424e-05
3 *356:3 7.09333e-05
4 *356:4 0.000139973
5 *356:5 0.000139973
6 *356:6 1.01716e-05
7 *356:7 1.44543e-05
8 *356:8 4.28277e-06

*RES
1 *356:8 *892:Y 1.4
2 *356:7 *356:8 0.0342852
3 *356:6 *356:7 0.0814273
4 *356:5 *356:6 1.4
5 *356:4 *356:5 1.11855
6 *356:3 *356:4 1.4
7 *356:2 *356:3 0.567848
8 *356:1 *356:2 0.0192854
9 *813:D *356:1 1.4
*END

*D_NET *357 0.000280105

*CONN
*I *825:D I *C 48.769 59.4975 *L 0.00276 *D SDFFRHQX1
*I *891:Y O *C 47.173 60.421 *L 0 *D AND2X1

*CAP
1 *357:1 4.57962e-06
2 *357:2 9.15923e-06
3 *357:3 4.57962e-06
4 *357:4 4.21871e-05
5 *357:5 4.21871e-05
6 *357:6 4.19396e-05
7 *357:7 4.19396e-05
8 *357:8 4.21871e-05
9 *357:9 4.21871e-05
10 *357:10 2.16929e-06
11 *357:11 4.57962e-06
12 *357:12 2.41032e-06

*RES
1 *357:12 *891:Y 1.4
2 *357:11 *357:12 0.021428
3 *357:10 *357:11 0.0192852
4 *357:9 *357:10 1.4
5 *357:8 *357:9 0.372848
6 *357:7 *357:8 1.4
7 *357:6 *357:7 0.372848
8 *357:5 *357:6 1.4
9 *357:4 *357:5 0.372848
10 *357:3 *357:4 1.4
11 *357:2 *357:3 0.0407133
12 *357:1 *357:2 0.0407133
13 *825:D *357:1 1.4
*END

*D_NET *358 0.000203743

*CONN
*I *827:D I *C 70.484 54.409 *L 0.00276 *D SDFFRHQX1
*I *890:Y O *C 69.158 53.9325 *L 0 *D AND2X1

*CAP
1 *358:1 6.17675e-06
2 *358:2 2.16186e-05
3 *358:3 1.54419e-05
4 *358:4 7.28881e-05
5 *358:5 7.28881e-05
6 *358:6 7.12702e-06
7 *358:7 7.36459e-06
8 *358:8 2.37567e-07

*RES
1 *358:8 *890:Y 1.4
2 *358:7 *358:8 0.00214285
3 *358:6 *358:7 0.0642854
4 *358:5 *358:6 1.4
5 *358:4 *358:5 0.621444
6 *358:3 *358:4 1.4
7 *358:2 *358:3 0.139285
8 *358:1 *358:2 0.0557141
9 *827:D *358:1 1.4
*END

*D_NET *359 0.000117055

*CONN
*I *826:D I *C 67.8085 59.382 *L 0.00276 *D SDFFRHQX1
*I *889:Y O *C 67.303 59.9395 *L 0 *D AND2X1

*CAP
1 *359:1 4.51378e-06
2 *359:2 8.07729e-06
3 *359:3 3.56351e-06
4 *359:4 1.45776e-05
5 *359:5 1.45776e-05
6 *359:6 3.01711e-05
7 *359:7 3.58727e-05
8 *359:8 5.70162e-06

*RES
1 *359:8 *889:Y 1.4
2 *359:7 *359:8 0.0514284
3 *359:6 *359:7 0.272142
4 *359:5 *359:6 1.4
5 *359:4 *359:5 0.124289
6 *359:3 *359:4 1.4
7 *359:2 *359:3 0.0321427
8 *359:1 *359:2 0.0407141
9 *826:D *359:1 1.4
*END

*D_NET *360 0.000493508

*CONN
*I *824:D I *C 45.9485 56.0915 *L 0.00276 *D SDFFRHQX1
*I *888:Y O *C 43.509 57.613 *L 0 *D AND2X1

*CAP
1 *360:1 7.23097e-07
2 *360:2 2.74777e-05
3 *360:3 2.67546e-05
4 *360:4 0.000112499
5 *360:5 0.000112499
6 *360:6 0.000100269
7 *360:7 0.000106777
8 *360:8 6.50787e-06

*RES
1 *360:8 *888:Y 1.4
2 *360:7 *360:8 0.0578557
3 *360:6 *360:7 0.891407
4 *360:5 *360:6 1.4
5 *360:4 *360:5 0.994261
6 *360:3 *360:4 1.4
7 *360:2 *360:3 0.237851
8 *360:1 *360:2 0.00642841
9 *824:D *360:1 1.4
*END

*D_NET *361 0.000296625

*CONN
*I *823:D I *C 46.583 40.818 *L 0.00276 *D SDFFRHQX1
*I *887:Y O *C 44.174 41.4835 *L 0 *D AND2X1

*CAP
1 *361:1 2.01127e-06
2 *361:2 2.74036e-05
3 *361:3 2.53923e-05
4 *361:4 0.00011035
5 *361:5 0.00011035
6 *361:6 8.0451e-06
7 *361:7 1.05592e-05
8 *361:8 2.51409e-06

*RES
1 *361:8 *887:Y 1.4
2 *361:7 *361:8 0.0214291
3 *361:6 *361:7 0.0685731
4 *361:5 *361:6 1.4
5 *361:4 *361:5 0.994261
6 *361:3 *361:4 1.4
7 *361:2 *361:3 0.216434
8 *361:1 *361:2 0.0171433
9 *823:D *361:1 1.4
*END

*D_NET *362 0.000232902

*CONN
*I *822:D I *C 47.711 34.882 *L 0.00276 *D SDFFRHQX1
*I *886:Y O *C 45.956 35.5145 *L 0 *D AND2X1

*CAP
1 *362:1 2.51409e-07
2 *362:2 3.26832e-05
3 *362:3 3.24318e-05
4 *362:4 8.27623e-05
5 *362:5 8.27623e-05
6 *362:6 5.02819e-07
7 *362:7 1.00564e-06
8 *362:8 5.02819e-07

*RES
1 *362:8 *886:Y 1.4
2 *362:7 *362:8 0.00428582
3 *362:6 *362:7 0.00428582
4 *362:5 *362:6 1.4
5 *362:4 *362:5 0.745696
6 *362:3 *362:4 1.4
7 *362:2 *362:3 0.276435
8 *362:1 *362:2 0.00214291
9 *822:D *362:1 1.4
*END

*D_NET *363 0.000105274

*CONN
*I *821:D I *C 47.8035 24.143 *L 0.00276 *D SDFFRHQX1
*I *885:Y O *C 47.0465 24.343 *L 0 *D AND2X1

*CAP
1 *363:1 5.2776e-06
2 *363:2 8.97193e-06
3 *363:3 3.69432e-06
4 *363:4 3.25823e-05
5 *363:5 3.25823e-05
6 *363:6 6.86089e-06
7 *363:7 1.1083e-05
8 *363:8 4.22208e-06

*RES
1 *363:8 *885:Y 1.4
2 *363:7 *363:8 0.0342851
3 *363:6 *363:7 0.0557133
4 *363:5 *363:6 1.4
5 *363:4 *363:5 0.248565
6 *363:3 *363:4 1.4
7 *363:2 *363:3 0.0299995
8 *363:1 *363:2 0.0428564
9 *821:D *363:1 1.4
*END

*D_NET *364 0.000107135

*CONN
*I *820:D I *C 44.729 16.815 *L 0.00276 *D SDFFRHQX1
*I *884:Y O *C 44.7585 15.9205 *L 0 *D AND2X1

*CAP
1 *364:1 3.9582e-06
2 *364:2 5.11928e-05
3 *364:3 4.96095e-05
4 *364:4 2.37492e-06

*RES
1 *364:4 *884:Y 1.4
2 *364:3 *364:4 0.0192854
3 *364:2 *364:3 0.383564
4 *364:1 *364:2 0.0321423
5 *820:D *364:1 1.4
*END

*D_NET *365 0.000349211

*CONN
*I *819:D I *C 34.239 16.4225 *L 0.00276 *D SDFFRHQX1
*I *883:Y O *C 32.8965 15.063 *L 0 *D AND2X1

*CAP
1 *365:1 6.59701e-06
2 *365:2 8.52333e-05
3 *365:3 7.86363e-05
4 *365:4 8.14558e-05
5 *365:5 8.14558e-05
6 *365:6 6.86089e-06
7 *365:7 7.91641e-06
8 *365:8 1.05552e-06

*RES
1 *365:8 *883:Y 1.4
2 *365:7 *365:8 0.00857127
3 *365:6 *365:7 0.0557133
4 *365:5 *365:6 1.4
5 *365:4 *365:5 0.621413
6 *365:3 *365:4 1.4
7 *365:2 *365:3 0.63856
8 *365:1 *365:2 0.0535705
9 *819:D *365:1 1.4
*END

*D_NET *366 0.00063192

*CONN
*I *818:D I *C 23.3955 19.308 *L 0.00276 *D SDFFRHQX1
*I *882:Y O *C 20.273 16.6535 *L 0 *D AND2X1

*CAP
1 *366:1 2.54382e-06
2 *366:2 3.81573e-06
3 *366:3 1.27191e-06
4 *366:4 0.000172234
5 *366:5 0.000172234
6 *366:6 0.000133805
7 *366:7 0.00013991
8 *366:8 6.10517e-06

*RES
1 *366:8 *882:Y 1.4
2 *366:7 *366:8 0.0514278
3 *366:6 *366:7 1.12713
4 *366:5 *366:6 1.4
5 *366:4 *366:5 1.36718
6 *366:3 *366:4 1.4
7 *366:2 *366:3 0.0107141
8 *366:1 *366:2 0.0214283
9 *818:D *366:1 1.4
*END

*D_NET *367 0.000603041

*CONN
*I *817:D I *C 22.078 28.191 *L 0.00276 *D SDFFRHQX1
*I *881:Y O *C 18.94 25.8535 *L 0 *D AND2X1

*CAP
1 *367:1 5.45441e-06
2 *367:2 0.0001214
3 *367:3 0.000115946
4 *367:4 0.000172234
5 *367:5 0.000172234
6 *367:6 5.08764e-06
7 *367:7 7.88584e-06
8 *367:8 2.7982e-06

*RES
1 *367:8 *881:Y 1.4
2 *367:7 *367:8 0.0235711
3 *367:6 *367:7 0.0428565
4 *367:5 *367:6 1.4
5 *367:4 *367:5 1.36718
6 *367:3 *367:4 1.4
7 *367:2 *367:3 0.957834
8 *367:1 *367:2 0.0449989
9 *817:D *367:1 1.4
*END

*D_NET *368 0.000427096

*CONN
*I *816:D I *C 23.0695 36.8985 *L 0.00276 *D SDFFRHQX1
*I *880:Y O *C 20.4285 35.5365 *L 0 *D AND2X1

*CAP
1 *368:1 7.79202e-07
2 *368:2 4.67521e-06
3 *368:3 3.89601e-06
4 *368:4 0.00013329
5 *368:5 0.00013329
6 *368:6 7.48034e-05
7 *368:7 7.55826e-05
8 *368:8 7.79202e-07

*RES
1 *368:8 *880:Y 1.4
2 *368:7 *368:8 0.00642841
3 *368:6 *368:7 0.617128
4 *368:5 *368:6 1.4
5 *368:4 *368:5 1.11855
6 *368:3 *368:4 1.4
7 *368:2 *368:3 0.0321421
8 *368:1 *368:2 0.00642841
9 *816:D *368:1 1.4
*END

*D_NET *369 0.000402151

*CONN
*I *815:D I *C 24.0005 43.474 *L 0.00276 *D SDFFRHQX1
*I *879:Y O *C 21.55 42.0145 *L 0 *D AND2X1

*CAP
1 *369:1 3.89601e-06
2 *369:2 2.51942e-05
3 *369:3 2.12982e-05
4 *369:4 0.00011848
5 *369:5 0.00011848
6 *369:6 5.45441e-05
7 *369:7 5.74012e-05
8 *369:8 2.85707e-06

*RES
1 *369:8 *879:Y 1.4
2 *369:7 *369:8 0.0235709
3 *369:6 *369:7 0.449989
4 *369:5 *369:6 1.4
5 *369:4 *369:5 0.994266
6 *369:3 *369:4 1.4
7 *369:2 *369:3 0.17571
8 *369:1 *369:2 0.0321421
9 *815:D *369:1 1.4
*END

*D_NET *370 0.000456609

*CONN
*I *814:D I *C 24.768 57.455 *L 0.00276 *D SDFFRHQX1
*I *878:Y O *C 22.267 56.132 *L 0 *D AND2X1

*CAP
1 *370:1 1.33836e-06
2 *370:2 7.22717e-06
3 *370:3 5.8888e-06
4 *370:4 0.000139973
5 *370:5 0.000139973
6 *370:6 7.68221e-05
7 *370:7 8.11049e-05
8 *370:8 4.28277e-06

*RES
1 *370:8 *878:Y 1.4
2 *370:7 *370:8 0.0342852
3 *370:6 *370:7 0.61499
4 *370:5 *370:6 1.4
5 *370:4 *370:5 1.11855
6 *370:3 *370:4 1.4
7 *370:2 *370:3 0.0471421
8 *370:1 *370:2 0.0107141
9 *814:D *370:1 1.4
*END

*D_NET *371 0.000360267

*CONN
*I *828:D I *C 71.209 40.543 *L 0.00276 *D SDFFRHQX1
*I *877:Y O *C 69.2055 38.9625 *L 0 *D AND2X1

*CAP
1 *371:1 7.54733e-07
2 *371:2 7.82406e-05
3 *371:3 7.74859e-05
4 *371:4 9.78678e-05
5 *371:5 9.78678e-05
6 *371:6 2.01262e-06
7 *371:7 4.02524e-06
8 *371:8 2.01262e-06

*RES
1 *371:8 *877:Y 1.4
2 *371:7 *371:8 0.0171424
3 *371:6 *371:7 0.0171424
4 *371:5 *371:6 1.4
5 *371:4 *371:5 0.869979
6 *371:3 *371:4 1.4
7 *371:2 *371:3 0.659984
8 *371:1 *371:2 0.00642841
9 *828:D *371:1 1.4
*END

*D_NET *372 0.000270831

*CONN
*I *798:D I *C 95.236 32.836 *L 0.00276 *D SDFFRHQX1
*I *876:Y O *C 93.4815 32.5885 *L 0 *D AND2X1

*CAP
1 *372:1 1.55835e-06
2 *372:2 2.75308e-05
3 *372:3 2.59725e-05
4 *372:4 9.2301e-05
5 *372:5 9.2301e-05
6 *372:6 1.3246e-05
7 *372:7 1.55835e-05
8 *372:8 2.33752e-06

*RES
1 *372:8 *876:Y 1.4
2 *372:7 *372:8 0.0192852
3 *372:6 *372:7 0.109283
4 *372:5 *372:6 1.4
5 *372:4 *372:5 0.745726
6 *372:3 *372:4 1.4
7 *372:2 *372:3 0.21428
8 *372:1 *372:2 0.0128568
9 *798:D *372:1 1.4
*END

*D_NET *373 0.000800996

*CONN
*I *810:D I *C 31.158 81.094 *L 0.00276 *D SDFFRHQX1
*I *875:Y O *C 26.186 83.357 *L 0 *D AND2X1

*CAP
1 *373:1 7.75026e-07
2 *373:2 8.86113e-05
3 *373:3 8.78362e-05
4 *373:4 0.000279852
5 *373:5 0.000279852
6 *373:6 2.89343e-05
7 *373:7 3.20344e-05
8 *373:8 3.1001e-06

*RES
1 *373:8 *875:Y 1.4
2 *373:7 *373:8 0.0257149
3 *373:6 *373:7 0.240006
4 *373:5 *373:6 1.4
5 *373:4 *373:5 2.11291
6 *373:3 *373:4 1.4
7 *373:2 *373:3 0.728589
8 *373:1 *373:2 0.00642873
9 *810:D *373:1 1.4
*END

*D_NET *374 0.000680453

*CONN
*I *811:D I *C 24.7355 79.099 *L 0.00276 *D SDFFRHQX1
*I *874:Y O *C 19.6665 80.1585 *L 0 *D AND2X1

*CAP
1 *374:1 3.15829e-06
2 *374:2 2.97405e-05
3 *374:3 2.65823e-05
4 *374:4 0.000276535
5 *374:5 0.000276535
6 *374:6 2.92142e-05
7 *374:7 3.39516e-05
8 *374:8 4.73743e-06

*RES
1 *374:8 *874:Y 1.4
2 *374:7 *374:8 0.0385722
3 *374:6 *374:7 0.237862
4 *374:5 *374:6 1.4
5 *374:4 *374:5 2.2371
6 *374:3 *374:4 1.4
7 *374:2 *374:3 0.216433
8 *374:1 *374:2 0.0257148
9 *811:D *374:1 1.4
*END

*D_NET *375 0.00050801

*CONN
*I *809:D I *C 40.829 79.7995 *L 0.00276 *D SDFFRHQX1
*I *873:Y O *C 37.7575 81.3585 *L 0 *D AND2X1

*CAP
1 *375:1 4.39181e-06
2 *375:2 9.30031e-06
3 *375:3 4.9085e-06
4 *375:4 0.000164619
5 *375:5 0.000164619
6 *375:6 7.56942e-05
7 *375:7 8.0086e-05
8 *375:8 4.39181e-06

*RES
1 *375:8 *873:Y 1.4
2 *375:7 *375:8 0.0364295
3 *375:6 *375:7 0.627873
4 *375:5 *375:6 1.4
5 *375:4 *375:5 1.24289
6 *375:3 *375:4 1.4
7 *375:2 *375:3 0.0407153
8 *375:1 *375:2 0.0364295
9 *809:D *375:1 1.4
*END

*D_NET *376 0.000433608

*CONN
*I *808:D I *C 46.7855 78.9435 *L 0.00276 *D SDFFRHQX1
*I *872:Y O *C 43.8935 79.866 *L 0 *D AND2X1

*CAP
1 *376:1 2.58342e-06
2 *376:2 2.17007e-05
3 *376:3 1.91173e-05
4 *376:4 0.000164619
5 *376:5 0.000164619
6 *376:6 2.84176e-05
7 *376:7 3.04843e-05
8 *376:8 2.06673e-06

*RES
1 *376:8 *872:Y 1.4
2 *376:7 *376:8 0.0171433
3 *376:6 *376:7 0.23572
4 *376:5 *376:6 1.4
5 *376:4 *376:5 1.24289
6 *376:3 *376:4 1.4
7 *376:2 *376:3 0.158575
8 *376:1 *376:2 0.0214291
9 *808:D *376:1 1.4
*END

*D_NET *377 0.000451059

*CONN
*I *807:D I *C 57.0925 78.8825 *L 0.00276 *D SDFFRHQX1
*I *871:Y O *C 53.95 79.8345 *L 0 *D AND2X1

*CAP
1 *377:1 5.6922e-06
2 *377:2 2.79435e-05
3 *377:3 2.22513e-05
4 *377:4 0.000163692
5 *377:5 0.000163692
6 *377:6 2.69086e-05
7 *377:7 3.38945e-05
8 *377:8 6.98588e-06

*RES
1 *377:8 *871:Y 1.4
2 *377:7 *377:8 0.0578561
3 *377:6 *377:7 0.222853
4 *377:5 *377:6 1.4
5 *377:4 *377:5 1.24283
6 *377:3 *377:4 1.4
7 *377:2 *377:3 0.184283
8 *377:1 *377:2 0.047142
9 *807:D *377:1 1.4
*END

*D_NET *378 0.000354249

*CONN
*I *806:D I *C 68.53 78.079 *L 0.00276 *D SDFFRHQX1
*I *870:Y O *C 65.863 78.8265 *L 0 *D AND2X1

*CAP
1 *378:1 2.61324e-06
2 *378:2 6.17675e-06
3 *378:3 3.56351e-06
4 *378:4 0.000131199
5 *378:5 0.000131199
6 *378:6 3.40568e-05
7 *378:7 3.9749e-05
8 *378:8 5.6922e-06

*RES
1 *378:8 *870:Y 1.4
2 *378:7 *378:8 0.047142
3 *378:6 *378:7 0.287139
4 *378:5 *378:6 1.4
5 *378:4 *378:5 1.1186
6 *378:3 *378:4 1.4
7 *378:2 *378:3 0.0321427
8 *378:1 *378:2 0.0235713
9 *806:D *378:1 1.4
*END

*D_NET *379 0.000423116

*CONN
*I *805:D I *C 73.669 78.6485 *L 0.00276 *D SDFFRHQX1
*I *869:Y O *C 70.9415 79.4055 *L 0 *D AND2X1

*CAP
1 *379:1 6.98588e-06
2 *379:2 2.63911e-05
3 *379:3 1.94052e-05
4 *379:4 0.000163692
5 *379:5 0.000163692
6 *379:6 1.9664e-05
7 *379:7 2.14751e-05
8 *379:8 1.81115e-06

*RES
1 *379:8 *869:Y 1.4
2 *379:7 *379:8 0.0149997
3 *379:6 *379:7 0.162854
4 *379:5 *379:6 1.4
5 *379:4 *379:5 1.24283
6 *379:3 *379:4 1.4
7 *379:2 *379:3 0.160711
8 *379:1 *379:2 0.0578561
9 *805:D *379:1 1.4
*END

*D_NET *380 0.000470882

*CONN
*I *804:D I *C 80.6825 80.162 *L 0.00276 *D SDFFRHQX1
*I *868:Y O *C 78.4245 81.784 *L 0 *D AND2X1

*CAP
1 *380:1 4.25462e-06
2 *380:2 5.58419e-06
3 *380:3 1.32957e-06
4 *380:4 6.44048e-05
5 *380:5 6.44048e-05
6 *380:6 9.2538e-05
7 *380:7 9.2538e-05
8 *380:8 6.44048e-05
9 *380:9 6.44048e-05
10 *380:10 7.44558e-06
11 *380:11 8.50924e-06
12 *380:12 1.06365e-06

*RES
1 *380:12 *868:Y 1.4
2 *380:11 *380:12 0.00857164
3 *380:10 *380:11 0.0600015
4 *380:9 *380:10 1.4
5 *380:8 *380:9 0.497132
6 *380:7 *380:8 1.4
7 *380:6 *380:7 0.745732
8 *380:5 *380:6 1.4
9 *380:4 *380:5 0.497132
10 *380:3 *380:4 1.4
11 *380:2 *380:3 0.0107145
12 *380:1 *380:2 0.0342866
13 *804:D *380:1 1.4
*END

*D_NET *381 0.000147064

*CONN
*I *797:D I *C 89.835 25.4415 *L 0.00276 *D SDFFRHQX1
*I *867:Y O *C 88.6625 25.5675 *L 0 *D AND2X1

*CAP
1 *381:1 3.70729e-06
2 *381:2 6.71946e-06
3 *381:3 3.01217e-06
4 *381:4 5.45319e-05
5 *381:5 5.45319e-05
6 *381:6 9.03651e-06
7 *381:7 1.22804e-05
8 *381:8 3.24388e-06

*RES
1 *381:8 *867:Y 1.4
2 *381:7 *381:8 0.0299995
3 *381:6 *381:7 0.0835701
4 *381:5 *381:6 1.4
5 *381:4 *381:5 0.497131
6 *381:3 *381:4 1.4
7 *381:2 *381:3 0.0278567
8 *381:1 *381:2 0.0342852
9 *797:D *381:1 1.4
*END

*D_NET *382 0.000473141

*CONN
*I *803:D I *C 90.298 80.0155 *L 0.00276 *D SDFFRHQX1
*I *866:Y O *C 89.555 82.982 *L 0 *D AND2X1

*CAP
1 *382:1 1.8614e-06
2 *382:2 8.24332e-06
3 *382:3 6.38193e-06
4 *382:4 3.22024e-05
5 *382:5 3.22024e-05
6 *382:6 0.000169653
7 *382:7 0.000169653
8 *382:8 1.61012e-05
9 *382:9 1.61012e-05
10 *382:10 5.58419e-06
11 *382:11 1.03706e-05
12 *382:12 4.78645e-06

*RES
1 *382:12 *866:Y 1.4
2 *382:11 *382:12 0.0385724
3 *382:10 *382:11 0.0450011
4 *382:9 *382:10 1.4
5 *382:8 *382:9 0.124283
6 *382:7 *382:8 1.4
7 *382:6 *382:7 1.36718
8 *382:5 *382:6 1.4
9 *382:4 *382:5 0.248566
10 *382:3 *382:4 1.4
11 *382:2 *382:3 0.0514298
12 *382:1 *382:2 0.0150004
13 *803:D *382:1 1.4
*END

*D_NET *383 0.000385922

*CONN
*I *802:D I *C 92.286 72.39 *L 0.00276 *D SDFFRHQX1
*I *865:Y O *C 92.597 75.4475 *L 0 *D AND2X1

*CAP
1 *383:1 4.20485e-06
2 *383:2 0.000170033
3 *383:3 0.000165829
4 *383:4 1.47807e-05
5 *383:5 1.47807e-05
6 *383:6 4.99325e-06
7 *383:7 8.14689e-06
8 *383:8 3.15363e-06

*RES
1 *383:8 *865:Y 1.4
2 *383:7 *383:8 0.0257146
3 *383:6 *383:7 0.0407148
4 *383:5 *383:6 1.4
5 *383:4 *383:5 0.124283
6 *383:3 *383:4 1.4
7 *383:2 *383:3 1.35216
8 *383:1 *383:2 0.0342862
9 *802:D *383:1 1.4
*END

*D_NET *384 0.000178435

*CONN
*I *801:D I *C 90.758 63.398 *L 0.00276 *D SDFFRHQX1
*I *864:Y O *C 89.9485 64.2335 *L 0 *D AND2X1

*CAP
1 *384:1 7.09568e-06
2 *384:2 8.9353e-06
3 *384:3 1.83962e-06
4 *384:4 2.95614e-05
5 *384:5 2.95614e-05
6 *384:6 4.57277e-05
7 *384:7 5.07209e-05
8 *384:8 4.99325e-06

*RES
1 *384:8 *864:Y 1.4
2 *384:7 *384:8 0.0407148
3 *384:6 *384:7 0.372862
4 *384:5 *384:6 1.4
5 *384:4 *384:5 0.248566
6 *384:3 *384:4 1.4
7 *384:2 *384:3 0.0150002
8 *384:1 *384:2 0.0578579
9 *801:D *384:1 1.4
*END

*D_NET *385 0.000256608

*CONN
*I *800:D I *C 91.3235 57.4895 *L 0.00276 *D SDFFRHQX1
*I *863:Y O *C 89.6735 58.3225 *L 0 *D AND2X1

*CAP
1 *385:1 6.30727e-06
2 *385:2 1.02493e-05
3 *385:3 3.94204e-06
4 *385:4 7.39036e-05
5 *385:5 7.39036e-05
6 *385:6 3.9946e-05
7 *385:7 4.41509e-05
8 *385:8 4.20485e-06

*RES
1 *385:8 *863:Y 1.4
2 *385:7 *385:8 0.0342862
3 *385:6 *385:7 0.325719
4 *385:5 *385:6 1.4
5 *385:4 *385:5 0.621416
6 *385:3 *385:4 1.4
7 *385:2 *385:3 0.0321433
8 *385:1 *385:2 0.0514292
9 *800:D *385:1 1.4
*END

*D_NET *386 0.000315623

*CONN
*I *799:D I *C 94.0005 42.7075 *L 0.00276 *D SDFFRHQX1
*I *862:Y O *C 92.1365 43.511 *L 0 *D AND2X1

*CAP
1 *386:1 5.45422e-06
2 *386:2 3.89587e-05
3 *386:3 3.35045e-05
4 *386:4 0.000107685
5 *386:5 0.000107685
6 *386:6 8.05147e-06
7 *386:7 1.11682e-05
8 *386:8 3.1167e-06

*RES
1 *386:8 *862:Y 1.4
2 *386:7 *386:8 0.0257137
3 *386:6 *386:7 0.0664269
4 *386:5 *386:6 1.4
5 *386:4 *386:5 0.870014
6 *386:3 *386:4 1.4
7 *386:2 *386:3 0.276422
8 *386:1 *386:2 0.0449989
9 *799:D *386:1 1.4
*END

*D_NET *387 0.000449279

*CONN
*I *812:D I *C 23.8785 70.204 *L 0.00276 *D SDFFRHQX1
*I *861:Y O *C 20.3715 69.6155 *L 0 *D AND2X1

*CAP
1 *387:1 2.40906e-06
2 *387:2 1.15099e-05
3 *387:3 9.10088e-06
4 *387:4 0.00018663
5 *387:5 0.00018663
6 *387:6 2.24845e-05
7 *387:7 2.64996e-05
8 *387:8 4.01509e-06

*RES
1 *387:8 *861:Y 1.4
2 *387:7 *387:8 0.0321424
3 *387:6 *387:7 0.179997
4 *387:5 *387:6 1.4
5 *387:4 *387:5 1.4914
6 *387:3 *387:4 1.4
7 *387:2 *387:3 0.072856
8 *387:1 *387:2 0.0192854
9 *812:D *387:1 1.4
*END

*D_NET *388 0.000291912

*CONN
*I *651:A0 I *C 71.478 11.3705 *L 0.00265 *D AOI21X1
*I *644:A I *C 72.19 10.2285 *L 0.00162 *D NOR2XL
*I *761:Y O *C 72.9625 10.694 *L 0 *D INVX1

*CAP
1 *388:1 2.43476e-07
2 *388:2 4.38256e-06
3 *388:3 4.13909e-06
4 *388:4 2.76072e-05
5 *388:5 2.76072e-05
6 *388:6 4.23648e-05
7 *388:7 5.96515e-05
8 *388:8 4.14108e-05
9 *388:9 2.33737e-05
10 *388:10 4.14108e-05
11 *388:11 6.08689e-06
12 *388:12 5.35646e-06
13 *388:14 6.81732e-06
14 *388:15 1.46085e-06

*RES
1 *388:15 *761:Y 1.4
2 *388:14 *388:15 0.0128568
3 *388:12 *388:14 0.0471417
4 *388:11 *644:A 1.4
5 *388:10 *388:12 1.4
6 *388:9 *388:11 0.0535701
7 *388:8 *388:10 0.372851
8 *388:7 *388:9 0.152139
9 *388:7 *388:8 1.4
10 *388:6 *388:7 0.372848
11 *388:5 *388:6 1.4
12 *388:4 *388:5 0.248567
13 *388:3 *388:4 1.4
14 *388:2 *388:3 0.0364277
15 *388:1 *388:2 0.0021428
16 *651:A0 *388:1 1.4
*END

*D_NET *389 0.000267227

*CONN
*I *735:C I *C 69.431 20.8165 *L 0.00165 *D OR3X1
*I *757:A I *C 69.1295 19.636 *L 0.00564 *D NOR2X2
*I *760:Y O *C 69.9245 19.377 *L 0 *D CLKINVX1

*CAP
1 *389:1 1.21738e-06
2 *389:2 5.11299e-06
3 *389:3 3.89561e-06
4 *389:4 1.38036e-05
5 *389:5 1.38036e-05
6 *389:6 5.35646e-05
7 *389:7 5.81907e-05
8 *389:8 1.70433e-06
9 *389:9 2.92171e-06
10 *389:11 4.14108e-05
11 *389:12 4.14108e-05
12 *389:13 9.73903e-06
13 *389:14 1.50955e-05
14 *389:15 5.35646e-06

*RES
1 *389:15 *760:Y 1.4
2 *389:14 *389:15 0.0471417
3 *389:13 *389:14 0.0857122
4 *389:12 *389:13 1.4
5 *389:11 *389:12 0.372851
6 *389:9 *389:11 1.4
7 *389:8 *757:A 1.4
8 *389:7 *389:9 0.0257137
9 *389:7 *389:8 0.0149996
10 *389:6 *389:7 0.471417
11 *389:5 *389:6 1.4
12 *389:4 *389:5 0.124284
13 *389:3 *389:4 1.4
14 *389:2 *389:3 0.0342849
15 *389:1 *389:2 0.010714
16 *735:C *389:1 1.4
*END

*D_NET *390 0.000195009

*CONN
*I *735:B I *C 69.721 20.8165 *L 0.00173 *D OR3X1
*I *759:Y O *C 71.3135 21.094 *L 0 *D INVX1

*CAP
1 *390:1 1.21738e-06
2 *390:2 5.11299e-06
3 *390:3 3.89561e-06
4 *390:4 6.90179e-05
5 *390:5 6.90179e-05
6 *390:6 1.75302e-05
7 *390:7 2.33737e-05
8 *390:8 5.84342e-06

*RES
1 *390:8 *759:Y 1.4
2 *390:7 *390:8 0.0514273
3 *390:6 *390:7 0.154282
4 *390:5 *390:6 1.4
5 *390:4 *390:5 0.621419
6 *390:3 *390:4 1.4
7 *390:2 *390:3 0.0342849
8 *390:1 *390:2 0.010714
9 *735:B *390:1 1.4
*END

*D_NET *391 0.000167917

*CONN
*I *1008:A I *C 94.487 11.722 *L 0.00175 *D AND3XL
*I *758:Y O *C 95.483 11.2965 *L 0 *D INVXL

*CAP
1 *391:1 4.1707e-06
2 *391:2 5.32923e-06
3 *391:3 1.15853e-06
4 *391:4 5.45319e-05
5 *391:5 5.45319e-05
6 *391:6 2.08535e-05
7 *391:7 2.40974e-05
8 *391:8 3.24388e-06

*RES
1 *391:8 *758:Y 1.4
2 *391:7 *391:8 0.0299995
3 *391:6 *391:7 0.192854
4 *391:5 *391:6 1.4
5 *391:4 *391:5 0.497131
6 *391:3 *391:4 1.4
7 *391:2 *391:3 0.0107141
8 *391:1 *391:2 0.0385708
9 *1008:A *391:1 1.4
*END

*D_NET *392 0.000181861

*CONN
*I *648:B0 I *C 72.4735 12.229 *L 0.0028 *D OAI211X1
*I *755:Y O *C 71.0455 12.422 *L 0 *D NAND2BX1

*CAP
1 *392:1 5.84342e-06
2 *392:2 1.04695e-05
3 *392:3 4.62604e-06
4 *392:4 6.90179e-05
5 *392:5 6.90179e-05
6 *392:6 4.62604e-06
7 *392:7 1.14434e-05
8 *392:8 6.81732e-06

*RES
1 *392:8 *755:Y 1.4
2 *392:7 *392:8 0.0599985
3 *392:6 *392:7 0.0407133
4 *392:5 *392:6 1.4
5 *392:4 *392:5 0.621419
6 *392:3 *392:4 1.4
7 *392:2 *392:3 0.0407133
8 *392:1 *392:2 0.0514273
9 *648:B0 *392:1 1.4
*END

*D_NET *393 0.0440566

*CONN
*I *698:S0 I *C 20.4575 10.463 *L 0.00371 *D MX2X1
*I *697:S0 I *C 12.82 11.4725 *L 0.00371 *D MX2X1
*I *696:S0 I *C 11.694 18.699 *L 0.00371 *D MX2X1
*I *695:S0 I *C 14.116 34.666 *L 0.00371 *D MX2X1
*I *694:S0 I *C 15.3695 42.31 *L 0.00371 *D MX2X1
*I *693:S0 I *C 15.1155 54.918 *L 0.00371 *D MX2X1
*I *692:S0 I *C 13.5535 63.34 *L 0.00371 *D MX2X1
*I *691:S0 I *C 10.13 81.162 *L 0.00371 *D MX2X1
*I *690:S0 I *C 10.2565 90.8265 *L 0.00371 *D MX2X1
*I *689:S0 I *C 16.1955 93.5715 *L 0.00371 *D MX2X1
*I *688:S0 I *C 34.248 92.166 *L 0.00371 *D MX2X1
*I *687:S0 I *C 42.1415 90.302 *L 0.00371 *D MX2X1
*I *718:S0 I *C 51.627 90.399 *L 0.00371 *D MX2X1
*I *717:S0 I *C 63.091 90.6355 *L 0.00371 *D MX2X1
*I *716:S0 I *C 69.82 91.9715 *L 0.00371 *D MX2X1
*I *715:S0 I *C 87.138 93.4165 *L 0.00371 *D MX2X1
*I *714:S0 I *C 96.859 92.7095 *L 0.00371 *D MX2X1
*I *713:S0 I *C 98.822 86.811 *L 0.00371 *D MX2X1
*I *712:S0 I *C 95.71 67.0655 *L 0.00371 *D MX2X1
*I *710:S0 I *C 93.7785 45.8915 *L 0.00371 *D MX2X1
*I *711:S0 I *C 93.497 59.421 *L 0.00371 *D MX2X1
*I *709:S0 I *C 91.466 36.097 *L 0.00371 *D MX2X1
*I *708:S0 I *C 74.241 34.311 *L 0.00371 *D MX2X1
*I *757:Y O *C 69.7095 20.216 *L 0 *D NOR2X2
*I *707:S0 I *C 66.888 37.1 *L 0.00371 *D MX2X1
*I *706:S0 I *C 68.249 56.9925 *L 0.00371 *D MX2X1
*I *705:S0 I *C 66.404 61.7575 *L 0.00371 *D MX2X1
*I *704:S0 I *C 46.1305 62.5155 *L 0.00371 *D MX2X1
*I *703:S0 I *C 41.851 59.53 *L 0.00371 *D MX2X1
*I *686:S0 I *C 42.5715 43.2435 *L 0.00371 *D MX2X1
*I *701:S0 I *C 45.2705 36.149 *L 0.00371 *D MX2X1
*I *700:S0 I *C 47.589 17.718 *L 0.00371 *D MX2X1
*I *699:S0 I *C 45.2865 11.434 *L 0.00371 *D MX2X1

*CAP
1 *393:1 7.63146e-07
2 *393:2 2.16225e-05
3 *393:3 2.08593e-05
4 *393:4 0.000407099
5 *393:5 0.00046973
6 *393:6 3.05258e-05
7 *393:7 6.26307e-05
8 *393:8 3.48503e-05
9 *393:9 0.000398108
10 *393:10 4.32449e-06
11 *393:11 0.00123661
12 *393:13 0.000835955
13 *393:14 2.54382e-06
14 *393:15 0.00011848
15 *393:17 0.00019253
16 *393:18 7.40501e-05
17 *393:19 1.45451e-05
18 *393:20 0.000376614
19 *393:21 1.71424e-05
20 *393:22 0.00104383
21 *393:23 2.59734e-06
22 *393:24 0.000667216
23 *393:25 1.481e-05
24 *393:27 1.55525e-05
25 *393:28 1.481e-05
26 *393:29 3.1105e-05
27 *393:30 5.97388e-06
28 *393:31 1.87371e-06
29 *393:32 1.55525e-05
30 *393:33 1.35062e-05
31 *393:34 7.76251e-06
32 *393:35 0.000481276
33 *393:36 7.53229e-06
34 *393:37 5.8888e-06
35 *393:38 0.000481276
36 *393:41 7.77625e-05
37 *393:42 0.000264393
38 *393:43 3.23884e-05
39 *393:44 0.00018663
40 *393:45 3.61358e-05
41 *393:46 0.000919034
42 *393:47 3.74742e-06
43 *393:48 0.0014391
44 *393:50 0.000513485
45 *393:51 6.57977e-06
46 *393:52 1.5363e-05
47 *393:54 0.000322624
48 *393:55 0.000307261
49 *393:56 4.73743e-06
50 *393:57 6.10602e-05
51 *393:58 6.84296e-06
52 *393:59 0.000139754
53 *393:60 2.10553e-06
54 *393:61 0.000999188
55 *393:62 8.39578e-05
56 *393:64 0.000999188
57 *393:65 5.26381e-06
58 *393:66 9.45531e-05
59 *393:68 1.0592e-05
60 *393:69 8.9903e-05
61 *393:70 5.94186e-06
62 *393:71 0.000444471
63 *393:73 0.000987713
64 *393:74 0.00118178
65 *393:75 1.80839e-06
66 *393:76 0.000638537
67 *393:77 3.35844e-06
68 *393:78 4.65015e-06
69 *393:79 1.55242e-05
70 *393:80 1.0592e-05
71 *393:81 2.84176e-06
72 *393:82 0.00012083
73 *393:83 7.23357e-06
74 *393:85 0.00010453
75 *393:86 7.76209e-07
76 *393:88 0.000376491
77 *393:90 0.00135047
78 *393:91 0.00150532
79 *393:92 3.54469e-05
80 *393:93 0.000644048
81 *393:94 4.04189e-05
82 *393:95 3.93279e-05
83 *393:96 0.000112708
84 *393:97 2.92505e-06
85 *393:98 4.06848e-05
86 *393:99 3.88105e-06
87 *393:100 0.000310853
88 *393:101 1.06365e-05
89 *393:102 2.65914e-07
90 *393:104 0.00131979
91 *393:105 7.7115e-06
92 *393:108 0.00100894
93 *393:110 3.9887e-06
94 *393:111 0.000133026
95 *393:112 3.9887e-06
96 *393:113 0.000147807
97 *393:115 0.000487762
98 *393:116 1.47807e-05
99 *393:117 0.000487762
100 *393:118 3.41644e-05
101 *393:119 0.000118246
102 *393:120 4.126e-05
103 *393:121 0.000133026
104 *393:122 7.09568e-06
105 *393:123 0.000655488
106 *393:124 1.47807e-05
107 *393:126 0.000657306
108 *393:127 5.17722e-05
109 *393:128 1.81807e-06
110 *393:130 5.3349e-05
111 *393:132 0.000508282
112 *393:133 1.57682e-06
113 *393:134 0.000508282
114 *393:136 0.000123068
115 *393:137 0.00102574
116 *393:138 5.1945e-07
117 *393:139 0.00109841
118 *393:140 5.1945e-07
119 *393:141 9.03164e-05
120 *393:142 0.000195736
121 *393:144 9.03164e-05
122 *393:145 1.45915e-05
123 *393:146 1.55835e-06
124 *393:148 0.000792899
125 *393:149 1.55835e-06
126 *393:150 7.29575e-06
127 *393:151 0.000153792
128 *393:152 0.000778308
129 *393:154 7.29575e-06
130 *393:155 0.000153792
131 *393:156 1.38036e-05
132 *393:158 6.46555e-05
133 *393:159 1.38036e-05
134 *393:160 0.00101044
135 *393:161 2.92171e-06
136 *393:162 0.00094578
137 *393:164 4.62604e-06
138 *393:165 8.74657e-05
139 *393:166 2.2642e-06
140 *393:167 1.70433e-06
141 *393:168 7.28881e-05
142 *393:169 1.45776e-05
143 *393:170 2.2642e-06
144 *393:172 4.18119e-05
145 *393:173 0.000261799
146 *393:175 4.395e-05
147 *393:176 0.000261799
148 *393:177 2.13811e-06
149 *393:178 1.45776e-05
150 *393:180 0.00100987
151 *393:181 6.41432e-06
152 *393:182 0.00105154
153 *393:183 6.41432e-06
154 *393:184 4.29038e-05
155 *393:185 5.62495e-05
156 *393:187 4.29038e-05
157 *393:188 0.000125819
158 *393:189 6.65189e-06
159 *393:191 0.000125819
160 *393:192 6.65189e-06
161 *393:193 6.02581e-06
162 *393:194 0.000154686
163 *393:196 6.02581e-06
164 *393:197 0.000154686
165 *393:199 0.000798097
166 *393:200 2.48263e-05
167 *393:201 0.000846179
168 *393:203 2.75874e-05
169 *393:204 7.29087e-05
170 *393:205 2.65136e-06
171 *393:206 2.75874e-05
172 *393:207 0.000165525
173 *393:208 2.65136e-06
174 *393:209 5.531e-06
175 *393:210 0.000165525
176 *393:212 9.80496e-06
177 *393:213 0.000289372
178 *393:214 4.27396e-06
179 *393:215 0.00127681
180 *393:218 0.000987442
181 *393:219 5.78241e-06
182 *393:220 1.62912e-05
183 *393:221 5.78241e-06
184 *393:222 0.000130329
185 *393:224 0.000114038
186 *393:225 0.000290796
187 *393:226 3.98459e-05
188 *393:227 0.000290796
189 *393:228 4.59152e-05
190 *393:229 1.62912e-05
191 *393:230 6.06925e-06
192 *393:231 1.62912e-05
193 *393:233 1.05552e-06
194 *393:234 6.33313e-06
195 *393:235 5.2776e-06

*RES
1 *393:235 *699:S0 1.4
2 *393:234 *393:235 0.0428564
3 *393:233 *393:234 0.00857127
4 *393:231 *393:233 1.4
5 *393:230 *700:S0 1.4
6 *393:229 *393:231 0.124283
7 *393:228 *393:230 0.0492848
8 *393:227 *393:229 1.4
9 *393:226 *393:228 0.323566
10 *393:225 *393:227 2.36139
11 *393:224 *393:226 1.4
12 *393:222 *393:225 1.4
13 *393:222 *393:224 0.869979
14 *393:221 *701:S0 1.4
15 *393:220 *393:222 0.124283
16 *393:219 *393:221 0.0492869
17 *393:218 *393:220 1.4
18 *393:217 *393:219 1.4
19 *393:215 *393:218 8.22218
20 *393:215 *393:217 1.4
21 *393:214 *686:S0 1.4
22 *393:213 *393:215 2.46649
23 *393:212 *393:214 0.0364295
24 *393:210 *393:213 1.4
25 *393:209 *393:212 0.047144
26 *393:208 *703:S0 1.4
27 *393:207 *393:210 1.49139
28 *393:206 *393:209 1.4
29 *393:205 *393:208 0.0235709
30 *393:204 *393:207 1.4
31 *393:203 *393:206 0.248565
32 *393:202 *393:205 1.4
33 *393:201 *393:204 0.621444
34 *393:201 *393:203 1.4
35 *393:200 *393:202 1.4
36 *393:199 *393:201 6.71145
37 *393:199 *393:200 0.220709
38 *393:197 *393:199 1.4
39 *393:196 *704:S0 1.4
40 *393:194 *393:197 1.36711
41 *393:193 *393:196 0.0535701
42 *393:192 *705:S0 1.4
43 *393:191 *393:194 1.4
44 *393:190 *393:193 1.4
45 *393:189 *393:192 0.0599998
46 *393:188 *393:191 1.11854
47 *393:187 *393:190 1.4
48 *393:186 *393:189 1.4
49 *393:185 *393:188 1.4
50 *393:184 *393:187 0.381419
51 *393:183 *393:186 1.4
52 *393:182 *393:185 0.497131
53 *393:182 *393:184 1.4
54 *393:181 *393:183 0.0578569
55 *393:180 *393:182 8.5758
56 *393:180 *393:181 1.4
57 *393:178 *393:180 0.124289
58 *393:177 *706:S0 1.4
59 *393:176 *393:178 1.4
60 *393:175 *393:177 0.0192856
61 *393:173 *393:176 2.36142
62 *393:172 *393:175 0.377141
63 *393:170 *707:S0 1.4
64 *393:169 *393:173 1.4
65 *393:168 *393:172 1.4
66 *393:167 *757:Y 1.4
67 *393:166 *393:170 0.0192852
68 *393:165 *393:169 0.124289
69 *393:165 *393:168 0.621444
70 *393:164 *393:167 0.0149996
71 *393:163 *393:166 1.4
72 *393:162 *393:165 1.4
73 *393:161 *393:164 0.0257137
74 *393:160 *393:163 1.4
75 *393:160 *393:162 8.14912
76 *393:159 *393:161 1.4
77 *393:158 *393:160 0.550701
78 *393:156 *393:159 0.124284
79 *393:155 *393:158 1.4
80 *393:154 *708:S0 1.4
81 *393:152 *393:156 1.4
82 *393:151 *393:155 1.36711
83 *393:150 *393:154 0.0621413
84 *393:149 *709:S0 1.4
85 *393:148 *393:152 6.71126
86 *393:148 *393:151 1.4
87 *393:147 *393:150 1.4
88 *393:146 *393:149 0.0128568
89 *393:145 *393:148 0.124283
90 *393:144 *393:147 1.4
91 *393:143 *393:146 1.4
92 *393:142 *393:145 1.4
93 *393:141 *393:144 0.769267
94 *393:140 *393:143 1.4
95 *393:139 *393:142 1.73996
96 *393:139 *393:141 1.4
97 *393:138 *393:140 0.00428561
98 *393:137 *393:139 7.45719
99 *393:137 *393:138 1.4
100 *393:136 *393:137 0.994302
101 *393:134 *393:136 1.4
102 *393:133 *711:S0 1.4
103 *393:132 *393:134 4.19347
104 *393:130 *393:133 0.0128573
105 *393:129 *393:132 1.4
106 *393:128 *710:S0 1.4
107 *393:127 *393:130 0.422148
108 *393:126 *393:129 1.4
109 *393:126 *393:128 0.0149996
110 *393:124 *393:127 1.4
111 *393:123 *393:126 5.3764
112 *393:122 *712:S0 1.4
113 *393:121 *393:124 0.124283
114 *393:121 *393:123 1.4
115 *393:120 *393:122 0.0578579
116 *393:119 *393:121 0.994266
117 *393:118 *393:120 0.278575
118 *393:117 *393:119 1.4
119 *393:116 *393:118 1.4
120 *393:115 *393:117 3.97719
121 *393:113 *393:116 0.124283
122 *393:113 *393:115 1.4
123 *393:112 *713:S0 1.4
124 *393:111 *393:113 1.11855
125 *393:110 *393:112 0.0321436
126 *393:108 *393:111 1.4
127 *393:107 *393:110 1.4
128 *393:105 *714:S0 1.4
129 *393:104 *393:108 8.18372
130 *393:104 *393:107 1.4
131 *393:102 *715:S0 1.4
132 *393:101 *393:105 0.0621444
133 *393:100 *393:104 2.50506
134 *393:99 *716:S0 1.4
135 *393:98 *393:102 0.00214291
136 *393:97 *393:101 0.023572
137 *393:96 *393:100 1.4
138 *393:95 *393:99 0.0321423
139 *393:94 *393:98 0.325722
140 *393:93 *393:97 1.4
141 *393:93 *393:96 0.869981
142 *393:92 *393:95 0.293566
143 *393:91 *393:94 1.4
144 *393:91 *393:93 4.10134
145 *393:90 *393:92 1.4
146 *393:90 *393:91 7.45698
147 *393:88 *393:90 2.85851
148 *393:86 *717:S0 1.4
149 *393:85 *393:88 1.4
150 *393:83 *718:S0 1.4
151 *393:82 *393:86 0.00642846
152 *393:82 *393:85 0.865699
153 *393:81 *687:S0 1.4
154 *393:80 *393:83 0.0600015
155 *393:79 *393:82 0.128569
156 *393:78 *393:81 0.023572
157 *393:77 *393:80 0.0278578
158 *393:76 *393:79 1.4
159 *393:75 *393:78 0.0150004
160 *393:74 *393:77 1.4
161 *393:74 *393:76 4.84704
162 *393:73 *393:75 1.4
163 *393:73 *393:74 4.10153
164 *393:71 *393:73 3.3558
165 *393:70 *688:S0 1.4
166 *393:69 *393:71 1.4
167 *393:68 *393:70 0.0492869
168 *393:66 *393:69 0.745733
169 *393:66 *393:68 0.0385724
170 *393:65 *689:S0 1.4
171 *393:64 *393:66 1.4
172 *393:62 *393:65 0.042858
173 *393:61 *393:64 7.83
174 *393:60 *690:S0 1.4
175 *393:59 *393:62 0.640728
176 *393:59 *393:61 1.4
177 *393:58 *393:60 0.0171432
178 *393:57 *393:59 0.497153
179 *393:56 *393:58 0.0385722
180 *393:55 *393:57 1.4
181 *393:54 *393:56 1.4
182 *393:54 *393:55 2.48566
183 *393:52 *393:54 0.124283
184 *393:51 *691:S0 1.4
185 *393:50 *393:52 1.4
186 *393:48 *393:51 0.0535726
187 *393:48 *393:50 4.1808
188 *393:47 *692:S0 1.4
189 *393:46 *393:48 7.37779
190 *393:45 *393:47 0.0299995
191 *393:44 *393:46 1.4
192 *393:43 *393:45 0.259282
193 *393:42 *393:44 1.4914
194 *393:42 *393:43 1.4
195 *393:41 *393:42 0.621415
196 *393:38 *393:41 1.4
197 *393:37 *693:S0 1.4
198 *393:36 *694:S0 1.4
199 *393:35 *393:38 3.8528
200 *393:34 *393:37 0.0471421
201 *393:33 *393:36 0.0621413
202 *393:32 *393:35 1.4
203 *393:31 *393:34 0.0149998
204 *393:30 *393:33 0.0492845
205 *393:29 *393:32 0.124283
206 *393:29 *393:31 1.4
207 *393:28 *393:30 1.4
208 *393:27 *393:29 0.124283
209 *393:25 *393:28 0.124283
210 *393:24 *393:27 1.4
211 *393:23 *695:S0 1.4
212 *393:22 *393:25 1.4
213 *393:22 *393:24 5.46845
214 *393:21 *393:23 0.021428
215 *393:20 *393:22 3.10707
216 *393:19 *393:21 0.119997
217 *393:18 *393:20 1.4
218 *393:17 *393:19 1.4
219 *393:17 *393:18 0.621416
220 *393:15 *393:17 0.994266
221 *393:14 *696:S0 1.4
222 *393:13 *393:15 1.4
223 *393:11 *393:14 0.0214283
224 *393:11 *393:13 6.96201
225 *393:10 *697:S0 1.4
226 *393:9 *393:11 3.35352
227 *393:8 *393:10 0.036428
228 *393:7 *393:9 1.4
229 *393:6 *393:8 0.257139
230 *393:5 *393:7 0.497155
231 *393:5 *393:6 1.4
232 *393:4 *393:5 3.23151
233 *393:3 *393:4 1.4
234 *393:2 *393:3 0.175712
235 *393:1 *393:2 0.00642848
236 *698:S0 *393:1 1.4
*END

*D_NET *394 0.00011207

*CONN
*I *645:B0 I *C 98.3375 11.4185 *L 0.0028 *D OAI211X1
*I *685:A I *C 98.877 11.422 *L 0.00273 *D INVX1
*I *756:Y O *C 98.682 10.885 *L 0 *D NAND2XL

*CAP
1 *394:1 5.32923e-06
2 *394:2 6.95117e-06
3 *394:3 1.62194e-06
4 *394:4 1.3633e-05
5 *394:5 1.3633e-05
6 *394:6 1.62194e-06
7 *394:7 3.24388e-05
8 *394:8 6.02434e-06
9 *394:9 2.78047e-05
10 *394:11 3.01217e-06

*RES
1 *394:11 *756:Y 1.4
2 *394:9 *394:11 0.0278567
3 *394:8 *685:A 1.4
4 *394:7 *394:9 0.229282
5 *394:7 *394:8 0.0557134
6 *394:6 *394:7 0.0149998
7 *394:5 *394:6 1.4
8 *394:4 *394:5 0.124283
9 *394:3 *394:4 1.4
10 *394:2 *394:3 0.0149998
11 *394:1 *394:2 0.0492849
12 *645:B0 *394:1 1.4
*END

*D_NET *395 8.79891e-05

*CONN
*I *702:A1 I *C 70.7065 12.423 *L 0.00274 *D OAI21X1
*I *754:Y O *C 71.0405 12.0275 *L 0 *D NAND2XL

*CAP
1 *395:1 4.38256e-06
2 *395:2 9.25208e-06
3 *395:3 4.86951e-06
4 *395:4 1.38036e-05
5 *395:5 1.38036e-05
6 *395:6 1.43651e-05
7 *395:7 2.09389e-05
8 *395:8 6.57384e-06

*RES
1 *395:8 *754:Y 1.4
2 *395:7 *395:8 0.0578557
3 *395:6 *395:7 0.126425
4 *395:5 *395:6 1.4
5 *395:4 *395:5 0.124284
6 *395:3 *395:4 1.4
7 *395:2 *395:3 0.0428561
8 *395:1 *395:2 0.0385705
9 *702:A1 *395:1 1.4
*END

*D_NET *396 0.000482625

*CONN
*I *549:D I *C 68.778 81.3165 *L 0.00276 *D SDFFRHQX1
*I *753:Y O *C 65.962 82.7025 *L 0 *D MX2X1

*CAP
1 *396:1 4.91599e-06
2 *396:2 3.64818e-05
3 *396:3 3.15658e-05
4 *396:4 0.000163692
5 *396:5 0.000163692
6 *396:6 4.03629e-05
7 *396:7 4.11391e-05
8 *396:8 7.76209e-07

*RES
1 *396:8 *753:Y 1.4
2 *396:7 *396:8 0.00642846
3 *396:6 *396:7 0.33428
4 *396:5 *396:6 1.4
5 *396:4 *396:5 1.24283
6 *396:3 *396:4 1.4
7 *396:2 *396:3 0.261424
8 *396:1 *396:2 0.0407136
9 *549:D *396:1 1.4
*END

*D_NET *397 0.000365539

*CONN
*I *548:D I *C 74.494 84.129 *L 0.00276 *D SDFFRHQX1
*I *752:Y O *C 71.844 84.6355 *L 0 *D MX2X1

*CAP
1 *397:1 5.6922e-06
2 *397:2 1.16431e-05
3 *397:3 5.95094e-06
4 *397:4 0.000147323
5 *397:5 0.000147323
6 *397:6 2.01814e-05
7 *397:7 2.38037e-05
8 *397:8 3.62231e-06

*RES
1 *397:8 *752:Y 1.4
2 *397:7 *397:8 0.0299995
3 *397:6 *397:7 0.16714
4 *397:5 *397:6 1.4
5 *397:4 *397:5 1.11855
6 *397:3 *397:4 1.4
7 *397:2 *397:3 0.0492849
8 *397:1 *397:2 0.047142
9 *548:D *397:1 1.4
*END

*D_NET *398 0.00039305

*CONN
*I *547:D I *C 88.04 89.377 *L 0.00276 *D SDFFRHQX1
*I *751:Y O *C 84.813 89.044 *L 0 *D MX2X1

*CAP
1 *398:1 1.32957e-06
2 *398:2 1.19661e-05
3 *398:3 1.06365e-05
4 *398:4 0.000177113
5 *398:5 0.000177113
6 *398:6 6.91376e-06
7 *398:7 7.44558e-06
8 *398:8 5.31827e-07

*RES
1 *398:8 *751:Y 1.4
2 *398:7 *398:8 0.00428582
3 *398:6 *398:7 0.0557156
4 *398:5 *398:6 1.4
5 *398:4 *398:5 1.36711
6 *398:3 *398:4 1.4
7 *398:2 *398:3 0.0857164
8 *398:1 *398:2 0.0107145
9 *547:D *398:1 1.4
*END

*D_NET *399 0.000381296

*CONN
*I *546:D I *C 99.552 88.516 *L 0.00276 *D SDFFRHQX1
*I *750:Y O *C 96.9405 89.246 *L 0 *D MX2X1

*CAP
1 *399:1 3.45688e-06
2 *399:2 7.7115e-06
3 *399:3 4.25462e-06
4 *399:4 0.000144911
5 *399:5 0.000144911
6 *399:6 3.45688e-05
7 *399:7 3.80257e-05
8 *399:8 3.45688e-06

*RES
1 *399:8 *750:Y 1.4
2 *399:7 *399:8 0.0278578
3 *399:6 *399:7 0.278578
4 *399:5 *399:6 1.4
5 *399:4 *399:5 1.11855
6 *399:3 *399:4 1.4
7 *399:2 *399:3 0.0342866
8 *399:1 *399:2 0.0278578
9 *546:D *399:1 1.4
*END

*D_NET *400 0.000454329

*CONN
*I *545:D I *C 99.649 77.4555 *L 0.00276 *D SDFFRHQX1
*I *749:Y O *C 98.437 80.5705 *L 0 *D MX2X1

*CAP
1 *400:1 1.83962e-06
2 *400:2 8.14689e-06
3 *400:3 6.30727e-06
4 *400:4 5.91229e-05
5 *400:5 5.91229e-05
6 *400:6 0.000158831
7 *400:7 0.000159895
8 *400:8 1.06365e-06

*RES
1 *400:8 *749:Y 1.4
2 *400:7 *400:8 0.00857164
3 *400:6 *400:7 1.2836
4 *400:5 *400:6 1.4
5 *400:4 *400:5 0.497133
6 *400:3 *400:4 1.4
7 *400:2 *400:3 0.0514292
8 *400:1 *400:2 0.0150002
9 *545:D *400:1 1.4
*END

*D_NET *401 0.000241779

*CONN
*I *544:D I *C 94.135 63.505 *L 0.00276 *D SDFFRHQX1
*I *748:Y O *C 94.1885 65.689 *L 0 *D MX2X1

*CAP
1 *401:1 1.57682e-06
2 *401:2 0.000116422
3 *401:3 0.000119312
4 *401:4 4.46765e-06

*RES
1 *401:4 *748:Y 1.4
2 *401:3 *401:4 0.036429
3 *401:2 *401:3 0.936441
4 *401:1 *401:2 0.0128573
5 *544:D *401:1 1.4
*END

*D_NET *402 0.000326784

*CONN
*I *543:D I *C 93.8565 56.6675 *L 0.00276 *D SDFFRHQX1
*I *747:Y O *C 93.024 58.8145 *L 0 *D MX2X1

*CAP
1 *402:1 2.10242e-06
2 *402:2 3.41644e-06
3 *402:3 1.31401e-06
4 *402:4 2.95614e-05
5 *402:5 2.95614e-05
6 *402:6 0.000106698
7 *402:7 0.000106698
8 *402:8 1.47807e-05
9 *402:9 1.47807e-05
10 *402:10 4.73045e-06
11 *402:11 8.9353e-06
12 *402:12 4.20485e-06

*RES
1 *402:12 *747:Y 1.4
2 *402:11 *402:12 0.0342862
3 *402:10 *402:11 0.0385719
4 *402:9 *402:10 1.4
5 *402:8 *402:9 0.124283
6 *402:7 *402:8 1.4
7 *402:6 *402:7 0.870011
8 *402:5 *402:6 1.4
9 *402:4 *402:5 0.248566
10 *402:3 *402:4 1.4
11 *402:2 *402:3 0.0107144
12 *402:1 *402:2 0.0171431
13 *543:D *402:1 1.4
*END

*D_NET *403 0.000361496

*CONN
*I *541:D I *C 97.628 30.473 *L 0.00276 *D SDFFRHQX1
*I *746:Y O *C 96.3705 32.669 *L 0 *D MX2X1

*CAP
1 *403:1 2.33752e-06
2 *403:2 8.38912e-05
3 *403:3 8.15536e-05
4 *403:4 6.1534e-05
5 *403:5 6.1534e-05
6 *403:6 3.24656e-05
7 *403:7 3.53226e-05
8 *403:8 2.85697e-06

*RES
1 *403:8 *746:Y 1.4
2 *403:7 *403:8 0.0235709
3 *403:6 *403:7 0.267851
4 *403:5 *403:6 1.4
5 *403:4 *403:5 0.497151
6 *403:3 *403:4 1.4
7 *403:2 *403:3 0.672841
8 *403:1 *403:2 0.0192852
9 *541:D *403:1 1.4
*END

*D_NET *404 0.000314484

*CONN
*I *567:D I *C 44.667 56.998 *L 0.00276 *D SDFFRHQX1
*I *745:Y O *C 43.7445 58.857 *L 0 *D MX2X1

*CAP
1 *404:1 6.74891e-06
2 *404:2 6.19453e-05
3 *404:3 5.51964e-05
4 *404:4 5.62495e-05
5 *404:5 5.62495e-05
6 *404:6 3.42266e-05
7 *404:7 3.90472e-05
8 *404:8 4.82065e-06

*RES
1 *404:8 *745:Y 1.4
2 *404:7 *404:8 0.0428561
3 *404:6 *404:7 0.304278
4 *404:5 *404:6 1.4
5 *404:4 *404:5 0.497131
6 *404:3 *404:4 1.4
7 *404:2 *404:3 0.490702
8 *404:1 *404:2 0.0599985
9 *567:D *404:1 1.4
*END

*D_NET *405 0.000284699

*CONN
*I *554:D I *C 16.45 88.8155 *L 0.00276 *D SDFFRHQX1
*I *744:Y O *C 14.8365 87.8745 *L 0 *D MX2X1

*CAP
1 *405:1 3.42148e-06
2 *405:2 7.10615e-06
3 *405:3 3.68467e-06
4 *405:4 7.68152e-05
5 *405:5 7.68152e-05
6 *405:6 5.31645e-05
7 *405:7 5.84283e-05
8 *405:8 5.26381e-06

*RES
1 *405:8 *744:Y 1.4
2 *405:7 *405:8 0.042858
3 *405:6 *405:7 0.432866
4 *405:5 *405:6 1.4
5 *405:4 *405:5 0.621415
6 *405:3 *405:4 1.4
7 *405:2 *405:3 0.0300006
8 *405:1 *405:2 0.0278577
9 *554:D *405:1 1.4
*END

*D_NET *406 0.000360573

*CONN
*I *558:D I *C 21.7225 44.0975 *L 0.00276 *D SDFFRHQX1
*I *743:Y O *C 19.8745 42.471 *L 0 *D MX2X1

*CAP
1 *406:1 6.23362e-06
2 *406:2 4.4934e-05
3 *406:3 3.87004e-05
4 *406:4 8.88601e-05
5 *406:5 8.88601e-05
6 *406:6 4.59729e-05
7 *406:7 4.64924e-05
8 *406:8 5.19468e-07

*RES
1 *406:8 *743:Y 1.4
2 *406:7 *406:8 0.00428561
3 *406:6 *406:7 0.379276
4 *406:5 *406:6 1.4
5 *406:4 *406:5 0.745699
6 *406:3 *406:4 1.4
7 *406:2 *406:3 0.319278
8 *406:1 *406:2 0.0514273
9 *558:D *406:1 1.4
*END

*D_NET *407 0.00044704

*CONN
*I *560:D I *C 17.881 26.4805 *L 0.00276 *D SDFFRHQX1
*I *742:Y O *C 16.332 23.831 *L 0 *D MX2X1

*CAP
1 *407:1 2.33761e-06
2 *407:2 5.19468e-06
3 *407:3 2.85707e-06
4 *407:4 1.481e-05
5 *407:5 1.481e-05
6 *407:6 0.000133253
7 *407:7 0.000133253
8 *407:8 6.26307e-05
9 *407:9 6.26307e-05
10 *407:10 4.83326e-06
11 *407:11 7.63146e-06
12 *407:12 2.7982e-06

*RES
1 *407:12 *742:Y 1.4
2 *407:11 *407:12 0.0235711
3 *407:10 *407:11 0.0407137
4 *407:9 *407:10 1.4
5 *407:8 *407:9 0.497155
6 *407:7 *407:8 1.4
7 *407:6 *407:7 1.11855
8 *407:5 *407:6 1.4
9 *407:4 *407:5 0.124283
10 *407:3 *407:4 1.4
11 *407:2 *407:3 0.0235709
12 *407:1 *407:2 0.0192852
13 *560:D *407:1 1.4
*END

*D_NET *408 0.000328442

*CONN
*I *556:D I *C 20.4875 64.475 *L 0.00276 *D SDFFRHQX1
*I *741:Y O *C 19.1005 63.111 *L 0 *D MX2X1

*CAP
1 *408:1 2.40906e-06
2 *408:2 5.08579e-06
3 *408:3 2.67673e-06
4 *408:4 7.77625e-05
5 *408:5 7.77625e-05
6 *408:6 7.57514e-05
7 *408:7 8.13726e-05
8 *408:8 5.62113e-06

*RES
1 *408:8 *741:Y 1.4
2 *408:7 *408:8 0.0449993
3 *408:6 *408:7 0.606419
4 *408:5 *408:6 1.4
5 *408:4 *408:5 0.621415
6 *408:3 *408:4 1.4
7 *408:2 *408:3 0.0214282
8 *408:1 *408:2 0.0192854
9 *556:D *408:1 1.4
*END

*D_NET *409 0.000593872

*CONN
*I *571:D I *C 70.794 40.319 *L 0.00276 *D SDFFRHQX1
*I *740:Y O *C 69.621 38.763 *L 0 *D MX2X1

*CAP
1 *409:1 5.53471e-06
2 *409:2 0.000159249
3 *409:3 0.000153714
4 *409:4 5.59244e-05
5 *409:5 5.59244e-05
6 *409:6 7.54733e-05
7 *409:7 8.17627e-05
8 *409:8 6.28944e-06

*RES
1 *409:8 *740:Y 1.4
2 *409:7 *409:8 0.0535701
3 *409:6 *409:7 0.642841
4 *409:5 *409:6 1.4
5 *409:4 *409:5 0.497131
6 *409:3 *409:4 1.4
7 *409:2 *409:3 1.30925
8 *409:1 *409:2 0.0471417
9 *571:D *409:1 1.4
*END

*D_NET *410 0.000616807

*CONN
*I *570:D I *C 71.3975 58.3655 *L 0.00276 *D SDFFRHQX1
*I *739:Y O *C 70.4145 57.04 *L 0 *D MX2X1

*CAP
1 *410:1 4.03864e-06
2 *410:2 7.36459e-06
3 *410:3 3.32594e-06
4 *410:4 1.45776e-05
5 *410:5 1.45776e-05
6 *410:6 0.000137789
7 *410:7 0.000137789
8 *410:8 7.28881e-05
9 *410:9 7.28881e-05
10 *410:10 7.15078e-05
11 *410:11 7.5784e-05
12 *410:12 4.27621e-06

*RES
1 *410:12 *739:Y 1.4
2 *410:11 *410:12 0.0385713
3 *410:10 *410:11 0.644997
4 *410:9 *410:10 1.4
5 *410:8 *410:9 0.621444
6 *410:7 *410:8 1.4
7 *410:6 *410:7 1.24285
8 *410:5 *410:6 1.4
9 *410:4 *410:5 0.124289
10 *410:3 *410:4 1.4
11 *410:2 *410:3 0.0299999
12 *410:1 *410:2 0.0364284
13 *570:D *410:1 1.4
*END

*D_NET *411 5.86136e-05

*CONN
*I *569:D I *C 68.0655 61.528 *L 0.00276 *D SDFFRHQX1
*I *738:Y O *C 68.308 61.483 *L 0 *D MX2X1

*CAP
1 *411:1 2.85081e-06
2 *411:2 7.36459e-06
3 *411:3 4.51378e-06
4 *411:4 1.45776e-05
5 *411:5 1.45776e-05
6 *411:6 6.65189e-06
7 *411:7 7.36459e-06
8 *411:8 7.12702e-07

*RES
1 *411:8 *738:Y 1.4
2 *411:7 *411:8 0.00642855
3 *411:6 *411:7 0.0599998
4 *411:5 *411:6 1.4
5 *411:4 *411:5 0.124289
6 *411:3 *411:4 1.4
7 *411:2 *411:3 0.0407141
8 *411:1 *411:2 0.0257142
9 *569:D *411:1 1.4
*END

*D_NET *412 0.000144949

*CONN
*I *568:D I *C 47.2455 61.375 *L 0.00276 *D SDFFRHQX1
*I *737:Y O *C 47.721 62.0795 *L 0 *D MX2X1

*CAP
1 *412:1 5.78478e-06
2 *412:2 7.71304e-06
3 *412:3 1.92826e-06
4 *412:4 2.81247e-05
5 *412:5 2.81247e-05
6 *412:6 3.59138e-05
7 *412:7 3.66369e-05
8 *412:8 7.23097e-07

*RES
1 *412:8 *737:Y 1.4
2 *412:7 *412:8 0.00642841
3 *412:6 *412:7 0.319278
4 *412:5 *412:6 1.4
5 *412:4 *412:5 0.248565
6 *412:3 *412:4 1.4
7 *412:2 *412:3 0.0171424
8 *412:1 *412:2 0.0514273
9 *568:D *412:1 1.4
*END

*D_NET *413 0.000736386

*CONN
*I *540:D I *C 98.695 22.2165 *L 0.00276 *D SDFFRHQX1
*I *736:Y O *C 95.64 26.333 *L 0 *D MX2X1

*CAP
1 *413:1 2.31706e-06
2 *413:2 0.000189884
3 *413:3 0.000187567
4 *413:4 0.000169219
5 *413:5 0.000169219
6 *413:6 4.67505e-06
7 *413:7 9.09037e-06
8 *413:8 4.41532e-06

*RES
1 *413:8 *736:Y 1.4
2 *413:7 *413:8 0.0364277
3 *413:6 *413:7 0.0385705
4 *413:5 *413:6 1.4
5 *413:4 *413:5 1.36717
6 *413:3 *413:4 1.4
7 *413:2 *413:3 1.72711
8 *413:1 *413:2 0.0214282
9 *540:D *413:1 1.4
*END

*D_NET *414 0.000465386

*CONN
*I *542:D I *C 96.83 40.7375 *L 0.00276 *D SDFFRHQX1
*I *733:Y O *C 95.413 43.781 *L 0 *D MX2X1

*CAP
1 *414:1 5.97367e-06
2 *414:2 6.2334e-06
3 *414:3 2.59725e-07
4 *414:4 4.61505e-05
5 *414:5 4.61505e-05
6 *414:6 0.00015064
7 *414:7 0.00015064
8 *414:8 1.53835e-05
9 *414:9 1.53835e-05
10 *414:10 7.01257e-06
11 *414:11 1.42849e-05
12 *414:12 7.2723e-06

*RES
1 *414:12 *733:Y 1.4
2 *414:11 *414:12 0.0599985
3 *414:10 *414:11 0.0578557
4 *414:9 *414:10 1.4
5 *414:8 *414:9 0.124288
6 *414:7 *414:8 1.4
7 *414:6 *414:7 1.24283
8 *414:5 *414:6 1.4
9 *414:4 *414:5 0.372863
10 *414:3 *414:4 1.4
11 *414:2 *414:3 0.0021428
12 *414:1 *414:2 0.0492845
13 *542:D *414:1 1.4
*END

*D_NET *415 0.000377211

*CONN
*I *565:D I *C 48.8405 33.8745 *L 0.00276 *D SDFFRHQX1
*I *732:Y O *C 47.2425 35.656 *L 0 *D MX2X1

*CAP
1 *415:1 1.25705e-06
2 *415:2 5.78241e-06
3 *415:3 4.52537e-06
4 *415:4 4.13811e-05
5 *415:5 4.13811e-05
6 *415:6 8.74904e-05
7 *415:7 8.74904e-05
8 *415:8 4.13811e-05
9 *415:9 4.13811e-05
10 *415:10 6.53664e-06
11 *415:11 1.25705e-05
12 *415:12 6.03382e-06

*RES
1 *415:12 *732:Y 1.4
2 *415:11 *415:12 0.0514298
3 *415:10 *415:11 0.0557156
4 *415:9 *415:10 1.4
5 *415:8 *415:9 0.372848
6 *415:7 *415:8 1.4
7 *415:6 *415:7 0.745732
8 *415:5 *415:6 1.4
9 *415:4 *415:5 0.372848
10 *415:3 *415:4 1.4
11 *415:2 *415:3 0.0385724
12 *415:1 *415:2 0.0107145
13 *565:D *415:1 1.4
*END

*D_NET *416 0.000356211

*CONN
*I *564:D I *C 50.3115 18.4635 *L 0.00276 *D SDFFRHQX1
*I *731:Y O *C 49.2665 20.492 *L 0 *D MX2X1

*CAP
1 *416:1 2.6388e-07
2 *416:2 5.88453e-05
3 *416:3 5.85814e-05
4 *416:4 6.51647e-05
5 *416:5 6.51647e-05
6 *416:6 4.82901e-05
7 *416:7 5.40954e-05
8 *416:8 5.80536e-06

*RES
1 *416:8 *731:Y 1.4
2 *416:7 *416:8 0.047142
3 *416:6 *416:7 0.392136
4 *416:5 *416:6 1.4
5 *416:4 *416:5 0.497131
6 *416:3 *416:4 1.4
7 *416:2 *416:3 0.475706
8 *416:1 *416:2 0.00214282
9 *564:D *416:1 1.4
*END

*D_NET *417 0.000166245

*CONN
*I *563:D I *C 46.4085 11.2065 *L 0.00276 *D SDFFRHQX1
*I *730:Y O *C 46.6535 12.534 *L 0 *D MX2X1

*CAP
1 *417:1 7.12477e-06
2 *417:2 7.73169e-05
3 *417:3 7.59975e-05
4 *417:4 5.80536e-06

*RES
1 *417:4 *730:Y 1.4
2 *417:3 *417:4 0.047142
3 *417:2 *417:3 0.56999
4 *417:1 *417:2 0.0578561
5 *563:D *417:1 1.4
*END

*D_NET *418 0.000208418

*CONN
*I *562:D I *C 24.218 11.003 *L 0.00276 *D SDFFRHQX1
*I *729:Y O *C 25.2015 11.7485 *L 0 *D MX2X1

*CAP
1 *418:1 2.54382e-07
2 *418:2 6.86831e-06
3 *418:3 6.61393e-06
4 *418:4 4.6973e-05
5 *418:5 4.6973e-05
6 *418:6 4.45168e-05
7 *418:7 5.03676e-05
8 *418:8 5.85079e-06

*RES
1 *418:8 *729:Y 1.4
2 *418:7 *418:8 0.049285
3 *418:6 *418:7 0.374995
4 *418:5 *418:6 1.4
5 *418:4 *418:5 0.372866
6 *418:3 *418:4 1.4
7 *418:2 *418:3 0.0557135
8 *418:1 *418:2 0.00214283
9 *562:D *418:1 1.4
*END

*D_NET *419 0.000113226

*CONN
*I *561:D I *C 16.881 13.7405 *L 0.00276 *D SDFFRHQX1
*I *728:Y O *C 16.6405 13.126 *L 0 *D MX2X1

*CAP
1 *419:1 4.32449e-06
2 *419:2 6.10517e-06
3 *419:3 1.78067e-06
4 *419:4 1.56577e-05
5 *419:5 1.56577e-05
6 *419:6 3.30697e-05
7 *419:7 3.48503e-05
8 *419:8 1.78067e-06

*RES
1 *419:8 *728:Y 1.4
2 *419:7 *419:8 0.0149998
3 *419:6 *419:7 0.278567
4 *419:5 *419:6 1.4
5 *419:4 *419:5 0.124289
6 *419:3 *419:4 1.4
7 *419:2 *419:3 0.0149998
8 *419:1 *419:2 0.036428
9 *561:D *419:1 1.4
*END

*D_NET *420 0.000582393

*CONN
*I *550:D I *C 58.5605 82.8915 *L 0.00276 *D SDFFRHQX1
*I *727:Y O *C 54.714 84.0375 *L 0 *D MX2X1

*CAP
1 *420:1 6.46841e-06
2 *420:2 1.13844e-05
3 *420:3 4.91599e-06
4 *420:4 1.63692e-05
5 *420:5 1.63692e-05
6 *420:6 6.00268e-05
7 *420:7 6.00268e-05
8 *420:8 0.00019643
9 *420:9 0.00019643
10 *420:10 4.39852e-06
11 *420:11 6.98588e-06
12 *420:12 2.58736e-06

*RES
1 *420:12 *727:Y 1.4
2 *420:11 *420:12 0.0214282
3 *420:10 *420:11 0.0364279
4 *420:9 *420:10 1.4
5 *420:8 *420:9 1.4914
6 *420:7 *420:8 1.4
7 *420:6 *420:7 0.497134
8 *420:5 *420:6 1.4
9 *420:4 *420:5 0.124283
10 *420:3 *420:4 1.4
11 *420:2 *420:3 0.0407136
12 *420:1 *420:2 0.0535705
13 *550:D *420:1 1.4
*END

*D_NET *421 0.000361092

*CONN
*I *559:D I *C 20.526 36.9475 *L 0.00276 *D SDFFRHQX1
*I *726:Y O *C 18.609 35.4105 *L 0 *D MX2X1

*CAP
1 *421:1 4.15574e-06
2 *421:2 5.45441e-06
3 *421:3 1.29867e-06
4 *421:4 2.962e-05
5 *421:5 2.962e-05
6 *421:6 7.53229e-05
7 *421:7 7.53229e-05
8 *421:8 5.92401e-05
9 *421:9 5.92401e-05
10 *421:10 5.97388e-06
11 *421:11 1.09088e-05
12 *421:12 4.93495e-06

*RES
1 *421:12 *726:Y 1.4
2 *421:11 *421:12 0.0407133
3 *421:10 *421:11 0.0492845
4 *421:9 *421:10 1.4
5 *421:8 *421:9 0.497133
6 *421:7 *421:8 1.4
7 *421:6 *421:7 0.621413
8 *421:5 *421:6 1.4
9 *421:4 *421:5 0.248566
10 *421:3 *421:4 1.4
11 *421:2 *421:3 0.010714
12 *421:1 *421:2 0.0342849
13 *559:D *421:1 1.4
*END

*D_NET *422 0.000468226

*CONN
*I *551:D I *C 47.32 82.735 *L 0.00276 *D SDFFRHQX1
*I *725:Y O *C 44.5075 83.98 *L 0 *D MX2X1

*CAP
1 *422:1 4.9085e-06
2 *422:2 8.0086e-06
3 *422:3 3.1001e-06
4 *422:4 0.000164619
5 *422:5 0.000164619
6 *422:6 6.1227e-05
7 *422:7 6.14854e-05
8 *422:8 2.58342e-07

*RES
1 *422:8 *725:Y 1.4
2 *422:7 *422:8 0.00214291
3 *422:6 *422:7 0.50787
4 *422:5 *422:6 1.4
5 *422:4 *422:5 1.24289
6 *422:3 *422:4 1.4
7 *422:2 *422:3 0.0257149
8 *422:1 *422:2 0.0407153
9 *551:D *422:1 1.4
*END

*D_NET *423 0.000538943

*CONN
*I *557:D I *C 22.129 57.6425 *L 0.00276 *D SDFFRHQX1
*I *724:Y O *C 20.216 55.7615 *L 0 *D MX2X1

*CAP
1 *423:1 2.9444e-06
2 *423:2 2.97117e-05
3 *423:3 2.67673e-05
4 *423:4 9.3315e-05
5 *423:5 9.3315e-05
6 *423:6 0.0001242
7 *423:7 0.0001242
8 *423:8 1.55525e-05
9 *423:9 1.55525e-05
10 *423:10 3.47975e-06
11 *423:11 6.69182e-06
12 *423:12 3.21208e-06

*RES
1 *423:12 *724:Y 1.4
2 *423:11 *423:12 0.0257139
3 *423:10 *423:11 0.0278567
4 *423:9 *423:10 1.4
5 *423:8 *423:9 0.124283
6 *423:7 *423:8 1.4
7 *423:6 *423:7 0.99427
8 *423:5 *423:6 1.4
9 *423:4 *423:5 0.745698
10 *423:3 *423:4 1.4
11 *423:2 *423:3 0.214282
12 *423:1 *423:2 0.0235711
13 *557:D *423:1 1.4
*END

*D_NET *424 0.000251722

*CONN
*I *555:D I *C 15.887 77.573 *L 0.00276 *D SDFFRHQX1
*I *723:Y O *C 15.252 75.912 *L 0 *D MX2X1

*CAP
1 *424:1 4.28277e-06
2 *424:2 5.08579e-05
3 *424:3 4.65751e-05
4 *424:4 3.1105e-05
5 *424:5 3.1105e-05
6 *424:6 4.256e-05
7 *424:7 4.38984e-05
8 *424:8 1.33836e-06

*RES
1 *424:8 *723:Y 1.4
2 *424:7 *424:8 0.0107141
3 *424:6 *424:7 0.340709
4 *424:5 *424:6 1.4
5 *424:4 *424:5 0.248566
6 *424:3 *424:4 1.4
7 *424:2 *424:3 0.372851
8 *424:1 *424:2 0.0342852
9 *555:D *424:1 1.4
*END

*D_NET *425 0.000479136

*CONN
*I *553:D I *C 26.865 89.7045 *L 0.00276 *D SDFFRHQX1
*I *722:Y O *C 23.1055 89.846 *L 0 *D MX2X1

*CAP
1 *425:1 2.06673e-06
2 *425:2 1.44671e-05
3 *425:3 1.24004e-05
4 *425:4 0.000202467
5 *425:5 0.000202467
6 *425:6 2.00025e-05
7 *425:7 2.26344e-05
8 *425:8 2.63191e-06

*RES
1 *425:8 *722:Y 1.4
2 *425:7 *425:8 0.021429
3 *425:6 *425:7 0.162861
4 *425:5 *425:6 1.4
5 *425:4 *425:5 1.61569
6 *425:3 *425:4 1.4
7 *425:2 *425:3 0.10286
8 *425:1 *425:2 0.0171433
9 *553:D *425:1 1.4
*END

*D_NET *426 0.00051975

*CONN
*I *552:D I *C 40.731 85.1755 *L 0.00276 *D SDFFRHQX1
*I *721:Y O *C 37.6235 86.493 *L 0 *D MX2X1

*CAP
1 *426:1 7.75026e-07
2 *426:2 3.87513e-06
3 *426:3 3.1001e-06
4 *426:4 0.000181081
5 *426:5 0.000181081
6 *426:6 7.13024e-05
7 *426:7 7.49191e-05
8 *426:8 3.61679e-06

*RES
1 *426:8 *721:Y 1.4
2 *426:7 *426:8 0.0300007
3 *426:6 *426:7 0.591443
4 *426:5 *426:6 1.4
5 *426:4 *426:5 1.36718
6 *426:3 *426:4 1.4
7 *426:2 *426:3 0.0257149
8 *426:1 *426:2 0.00642873
9 *552:D *426:1 1.4
*END

*D_NET *427 0.000165265

*CONN
*I *648:C0 I *C 72.7635 11.649 *L 0.00287 *D OAI211X1
*I *720:Y O *C 72.1325 12.5875 *L 0 *D NAND3BX1

*CAP
1 *427:1 5.84342e-06
2 *427:2 1.04695e-05
3 *427:3 4.62604e-06
4 *427:4 2.76072e-05
5 *427:5 2.76072e-05
6 *427:6 4.11474e-05
7 *427:7 4.4556e-05
8 *427:8 3.40866e-06

*RES
1 *427:8 *720:Y 1.4
2 *427:7 *427:8 0.0299993
3 *427:6 *427:7 0.362134
4 *427:5 *427:6 1.4
5 *427:4 *427:5 0.248567
6 *427:3 *427:4 1.4
7 *427:2 *427:3 0.0407133
8 *427:1 *427:2 0.0514273
9 *648:C0 *427:1 1.4
*END

*D_NET *428 0.000373256

*CONN
*I *566:D I *C 46.3355 40.3815 *L 0.00276 *D SDFFRHQX1
*I *719:Y O *C 44.6705 42.506 *L 0 *D MX2X1

*CAP
1 *428:1 4.02255e-06
2 *428:2 7.79369e-06
3 *428:3 3.77114e-06
4 *428:4 2.75874e-05
5 *428:5 2.75874e-05
6 *428:6 0.000102072
7 *428:7 0.000102072
8 *428:8 4.13811e-05
9 *428:9 4.13811e-05
10 *428:10 1.00564e-06
11 *428:11 7.79369e-06
12 *428:12 6.78805e-06

*RES
1 *428:12 *719:Y 1.4
2 *428:11 *428:12 0.0578586
3 *428:10 *428:11 0.00857164
4 *428:9 *428:10 1.4
5 *428:8 *428:9 0.372848
6 *428:7 *428:8 1.4
7 *428:6 *428:7 0.870021
8 *428:5 *428:6 1.4
9 *428:4 *428:5 0.248565
10 *428:3 *428:4 1.4
11 *428:2 *428:3 0.0321436
12 *428:1 *428:2 0.0342866
13 *566:D *428:1 1.4
*END

*D_NET *429 0.0467338

*CONN
*I *675:S0 I *C 19.921 8.237 *L 0.00371 *D MX2X1
*I *674:S0 I *C 11.202 9.16 *L 0.00371 *D MX2X1
*I *673:S0 I *C 8.7145 17.065 *L 0.00371 *D MX2X1
*I *672:S0 I *C 10.6625 34.62 *L 0.00371 *D MX2X1
*I *670:S0 I *C 10.8405 54.8005 *L 0.00371 *D MX2X1
*I *671:S0 I *C 11.3195 42.5835 *L 0.00371 *D MX2X1
*I *667:S0 I *C 8.3185 91.7375 *L 0.00371 *D MX2X1
*I *669:S0 I *C 9.9035 63.7795 *L 0.00371 *D MX2X1
*I *652:S0 I *C 7.833 81.463 *L 0.00371 *D MX2X1
*I *666:S0 I *C 15.8275 95.2155 *L 0.00371 *D MX2X1
*I *665:S0 I *C 33.9905 94.199 *L 0.00371 *D MX2X1
*I *664:S0 I *C 42.286 93.006 *L 0.00371 *D MX2X1
*I *663:S0 I *C 51.887 93.2155 *L 0.00371 *D MX2X1
*I *662:S0 I *C 63.1645 93.2395 *L 0.00371 *D MX2X1
*I *661:S0 I *C 70.0295 93.942 *L 0.00371 *D MX2X1
*I *660:S0 I *C 87.575 95.002 *L 0.00371 *D MX2X1
*I *659:S0 I *C 98.598 94.0265 *L 0.00371 *D MX2X1
*I *657:S0 I *C 99.6795 67.634 *L 0.00371 *D MX2X1
*I *658:S0 I *C 101.299 86.972 *L 0.00371 *D MX2X1
*I *656:S0 I *C 98.06 59.2365 *L 0.00371 *D MX2X1
*I *655:S0 I *C 98.935 44.7175 *L 0.00371 *D MX2X1
*I *654:S0 I *C 99.139 34.5505 *L 0.00371 *D MX2X1
*I *653:S0 I *C 74.2975 34.772 *L 0.00371 *D MX2X1
*I *735:Y O *C 70.881 21.3965 *L 0 *D OR3X1
*I *702:B0 I *C 71.2865 12.133 *L 0.0028 *D OAI21X1
*I *668:S0 I *C 67.9795 37.3855 *L 0.00371 *D MX2X1
*I *683:S0 I *C 69.7425 57.759 *L 0.00371 *D MX2X1
*I *677:S0 I *C 48.238 11.811 *L 0.00371 *D MX2X1
*I *676:S0 I *C 45.607 8.5275 *L 0.00371 *D MX2X1
*I *681:S0 I *C 66.512 63.911 *L 0.00371 *D MX2X1
*I *680:S0 I *C 45.9135 65.28 *L 0.00371 *D MX2X1
*I *682:S0 I *C 41.0795 60.932 *L 0.00371 *D MX2X1
*I *679:S0 I *C 41.092 42.7615 *L 0.00371 *D MX2X1
*I *678:S0 I *C 45.5325 31.4865 *L 0.00371 *D MX2X1

*CAP
1 *429:1 2.7982e-06
2 *429:2 1.90786e-05
3 *429:3 1.62804e-05
4 *429:4 0.00046973
5 *429:5 0.00046973
6 *429:6 0.000442625
7 *429:7 3.07802e-05
8 *429:8 0.000442625
9 *429:9 3.25609e-05
10 *429:10 3.13153e-05
11 *429:11 1.78067e-06
12 *429:12 0.000125261
13 *429:14 0.000892589
14 *429:15 9.3946e-05
15 *429:16 0.000984794
16 *429:17 9.66651e-06
17 *429:18 9.22056e-05
18 *429:20 1.62804e-05
19 *429:21 1.481e-05
20 *429:22 4.15574e-06
21 *429:23 6.61393e-06
22 *429:24 1.481e-05
23 *429:25 4.15574e-06
24 *429:27 0.000316356
25 *429:29 0.000952982
26 *429:30 0.000643853
27 *429:31 2.962e-05
28 *429:32 9.10088e-06
29 *429:33 0.000139973
30 *429:34 2.962e-05
31 *429:35 1.87371e-06
32 *429:36 0.000139973
33 *429:37 5.19468e-06
34 *429:39 0.000481276
35 *429:40 1.22075e-05
36 *429:41 0.00142557
37 *429:42 7.01282e-06
38 *429:43 0.00149147
39 *429:44 9.3315e-05
40 *429:46 0.000674558
41 *429:47 1.5363e-05
42 *429:48 9.3315e-05
43 *429:49 0.000124489
44 *429:50 2.8951e-06
45 *429:51 1.5363e-05
46 *429:52 6.69182e-06
47 *429:53 0.000399439
48 *429:55 6.31658e-06
49 *429:56 1.20453e-05
50 *429:57 0.00139753
51 *429:58 1.36859e-05
52 *429:59 5.35346e-06
53 *429:60 0.00099809
54 *429:61 5.84283e-05
55 *429:62 7.36934e-06
56 *429:64 4.986e-05
57 *429:65 5.97443e-05
58 *429:67 9.30031e-06
59 *429:68 4.49515e-05
60 *429:69 1.31595e-06
61 *429:70 4.39181e-06
62 *429:71 0.000460933
63 *429:74 0.00100418
64 *429:75 0.00118178
65 *429:76 1.18837e-05
66 *429:77 0.0010314
67 *429:78 1.03337e-06
68 *429:79 1.65339e-05
69 *429:80 0.00039286
70 *429:81 2.58736e-07
71 *429:82 7.23357e-06
72 *429:83 4.65015e-06
73 *429:84 3.64818e-05
74 *429:85 4.91599e-06
75 *429:86 6.2002e-06
76 *429:88 3.67406e-05
77 *429:89 4.65726e-06
78 *429:92 2.58736e-07
79 *429:94 8.5383e-06
80 *429:96 8.5383e-06
81 *429:97 0.000973709
82 *429:98 0.00158555
83 *429:99 0.00067625
84 *429:100 4.75985e-05
85 *429:101 6.44048e-05
86 *429:102 4.25462e-06
87 *429:103 5.50441e-05
88 *429:104 0.000385575
89 *429:105 1.19661e-05
90 *429:106 7.44558e-06
91 *429:107 0.00140111
92 *429:108 7.7115e-06
93 *429:110 9.66072e-05
94 *429:111 0.00150251
95 *429:113 9.66072e-05
96 *429:114 3.41644e-06
97 *429:115 0.000483557
98 *429:116 6.11601e-06
99 *429:118 5.91229e-05
100 *429:119 9.04107e-06
101 *429:120 7.39036e-05
102 *429:121 2.92505e-06
103 *429:122 0.0006064
104 *429:123 1.47807e-05
105 *429:125 0.0006064
106 *429:126 4.20485e-05
107 *429:127 3.0767e-05
108 *429:128 4.75673e-05
109 *429:129 3.0767e-05
110 *429:130 5.51886e-06
111 *429:131 0.000109864
112 *429:133 0.00063269
113 *429:135 0.000528281
114 *429:136 5.1945e-06
115 *429:137 0.00128867
116 *429:138 5.45422e-06
117 *429:139 5.1945e-06
118 *429:140 0.00128867
119 *429:143 2.9183e-05
120 *429:144 5.45422e-06
121 *429:145 2.9183e-05
122 *429:146 5.45422e-06
123 *429:147 0.000167773
124 *429:149 2.33967e-05
125 *429:150 0.000167773
126 *429:151 2.76735e-05
127 *429:152 1.45915e-05
128 *429:153 4.27682e-06
129 *429:154 0.000688743
130 *429:156 0.000139811
131 *429:157 0.000679264
132 *429:158 0.000139811
133 *429:159 1.21738e-06
134 *429:160 3.89561e-06
135 *429:161 0.000116732
136 *429:163 1.38036e-05
137 *429:164 0.00012277
138 *429:165 1.38036e-05
139 *429:166 6.03786e-06
140 *429:167 4.19433e-05
141 *429:168 0.000447021
142 *429:170 4.19433e-05
143 *429:171 0.000456273
144 *429:172 1.25789e-06
145 *429:173 0.00102015
146 *429:174 4.38256e-06
147 *429:175 4.86951e-06
148 *429:176 1.25789e-06
149 *429:177 0.0011166
150 *429:179 0.00110777
151 *429:181 9.64523e-05
152 *429:182 4.37329e-05
153 *429:183 0.00110777
154 *429:184 2.91552e-05
155 *429:185 4.37329e-05
156 *429:186 1.53051e-05
157 *429:187 2.91552e-05
158 *429:189 0.000183661
159 *429:190 0.000192905
160 *429:192 1.62912e-05
161 *429:193 0.000168356
162 *429:194 0.000192905
163 *429:195 4.51378e-06
164 *429:196 1.62912e-05
165 *429:197 0.000162912
166 *429:198 8.74657e-05
167 *429:199 4.51378e-06
168 *429:200 3.43044e-06
169 *429:201 0.000162912
170 *429:202 0.00109734
171 *429:204 5.80536e-06
172 *429:205 1.3194e-06
173 *429:206 1.66297e-06
174 *429:207 0.00109424
175 *429:208 2.37492e-06
176 *429:209 5.01372e-06
177 *429:210 3.80108e-06
178 *429:211 6.98994e-05
179 *429:212 8.43742e-05
180 *429:214 3.69432e-06
181 *429:215 2.13811e-06
182 *429:216 6.98994e-05
183 *429:217 0.000139799
184 *429:220 1.40624e-05
185 *429:221 0.000139799
186 *429:222 1.40624e-05
187 *429:223 0.000168748
188 *429:224 5.54375e-06
189 *429:225 0.000168748
190 *429:226 7.95407e-06
191 *429:227 5.54375e-06
192 *429:228 2.41032e-06
193 *429:229 0.000901047
194 *429:232 0.00146344
195 *429:233 2.16929e-06
196 *429:235 0.000567934
197 *429:236 2.16929e-06
198 *429:237 2.7655e-06
199 *429:238 0.000220699
200 *429:240 2.7655e-06
201 *429:241 0.000220699
202 *429:243 1.00564e-06
203 *429:244 8.0451e-06
204 *429:245 7.03946e-06

*RES
1 *429:245 *678:S0 1.4
2 *429:244 *429:245 0.0600015
3 *429:243 *429:244 0.00857164
4 *429:241 *429:243 1.4
5 *429:240 *679:S0 1.4
6 *429:238 *429:241 1.98852
7 *429:237 *429:240 0.023572
8 *429:236 *682:S0 1.4
9 *429:235 *429:238 1.4
10 *429:234 *429:237 1.4
11 *429:233 *429:236 0.0192852
12 *429:232 *429:235 4.84083
13 *429:232 *429:234 1.4
14 *429:231 *429:233 1.4
15 *429:229 *429:232 7.78715
16 *429:229 *429:231 1.4
17 *429:228 *680:S0 1.4
18 *429:227 *429:229 0.0492845
19 *429:226 *429:228 0.021428
20 *429:225 *429:227 1.4
21 *429:224 *429:226 0.0492845
22 *429:223 *429:225 1.49139
23 *429:222 *429:224 1.4
24 *429:221 *429:223 1.4
25 *429:220 *429:222 0.124283
26 *429:217 *429:221 1.24283
27 *429:216 *429:220 1.4
28 *429:215 *681:S0 1.4
29 *429:214 *676:S0 1.4
30 *429:212 *429:217 1.4
31 *429:211 *429:216 0.621413
32 *429:210 *429:215 0.0192856
33 *429:209 *429:214 0.0299995
34 *429:208 *677:S0 1.4
35 *429:207 *429:212 0.745696
36 *429:207 *429:211 1.4
37 *429:206 *429:210 0.0149999
38 *429:205 *429:209 0.0107141
39 *429:204 *429:208 0.0192854
40 *429:202 *429:207 8.70009
41 *429:202 *429:206 1.4
42 *429:201 *429:205 1.4
43 *429:200 *429:204 0.0278566
44 *429:199 *683:S0 1.4
45 *429:198 *429:202 0.745732
46 *429:197 *429:201 1.24283
47 *429:196 *429:200 1.4
48 *429:195 *429:199 0.0407141
49 *429:194 *429:198 1.4
50 *429:193 *429:197 1.4
51 *429:192 *429:196 0.124283
52 *429:191 *429:195 1.4
53 *429:190 *429:194 1.73999
54 *429:189 *429:193 1.36712
55 *429:189 *429:192 1.4
56 *429:188 *429:191 1.4
57 *429:187 *429:190 1.4
58 *429:186 *429:189 0.124283
59 *429:185 *429:188 1.4
60 *429:184 *429:187 0.248577
61 *429:183 *429:186 1.4
62 *429:182 *429:185 0.372866
63 *429:181 *429:184 1.4
64 *429:179 *429:183 9.69412
65 *429:177 *429:182 1.4
66 *429:177 *429:181 0.869996
67 *429:176 *668:S0 1.4
68 *429:175 *429:179 1.4
69 *429:174 *702:B0 1.4
70 *429:173 *429:177 8.82412
71 *429:172 *429:176 0.010714
72 *429:171 *429:175 0.0428561
73 *429:171 *429:174 0.0385705
74 *429:170 *429:173 1.4
75 *429:169 *429:172 1.4
76 *429:168 *429:171 3.93419
77 *429:167 *429:170 0.372848
78 *429:166 *429:169 1.4
79 *429:165 *429:168 1.4
80 *429:164 *429:167 1.4
81 *429:164 *429:166 0.0514273
82 *429:163 *429:165 0.124284
83 *429:161 *429:164 0.994261
84 *429:160 *429:163 1.4
85 *429:159 *735:Y 1.4
86 *429:158 *429:161 1.4
87 *429:157 *429:160 0.0342849
88 *429:157 *429:159 0.010714
89 *429:156 *429:158 1.24283
90 *429:154 *429:157 5.807
91 *429:154 *429:156 1.4
92 *429:153 *653:S0 1.4
93 *429:152 *429:154 0.124283
94 *429:151 *429:153 0.0364277
95 *429:150 *429:152 1.4
96 *429:149 *429:151 0.199281
97 *429:147 *429:150 1.49139
98 *429:147 *429:149 1.4
99 *429:146 *654:S0 1.4
100 *429:145 *429:147 1.4
101 *429:144 *429:146 0.0449989
102 *429:143 *429:145 0.248565
103 *429:141 *429:144 1.4
104 *429:140 *429:143 1.4
105 *429:139 *655:S0 1.4
106 *429:138 *429:141 1.4
107 *429:137 *429:140 10.5644
108 *429:136 *429:139 0.0428561
109 *429:135 *429:138 0.0449989
110 *429:135 *429:137 1.4
111 *429:134 *429:136 1.4
112 *429:133 *429:135 4.31347
113 *429:133 *429:134 1.4
114 *429:131 *429:133 0.906406
115 *429:130 *656:S0 1.4
116 *429:129 *429:131 1.4
117 *429:128 *429:130 0.0450006
118 *429:127 *429:129 0.248575
119 *429:126 *429:128 0.342862
120 *429:125 *429:127 1.4
121 *429:123 *429:126 1.4
122 *429:122 *429:125 4.97141
123 *429:121 *658:S0 1.4
124 *429:120 *429:123 0.124283
125 *429:120 *429:122 1.4
126 *429:119 *429:121 0.023572
127 *429:118 *429:120 0.497133
128 *429:116 *429:119 0.0492869
129 *429:115 *429:118 1.4
130 *429:114 *657:S0 1.4
131 *429:113 *429:116 1.4
132 *429:111 *429:115 3.94291
133 *429:111 *429:114 0.0278575
134 *429:110 *429:113 0.745698
135 *429:108 *659:S0 1.4
136 *429:107 *429:111 8.23729
137 *429:107 *429:110 1.4
138 *429:106 *660:S0 1.4
139 *429:105 *429:108 0.0621444
140 *429:104 *429:107 3.10722
141 *429:103 *429:106 0.0600015
142 *429:102 *429:105 0.0342866
143 *429:101 *429:104 1.4
144 *429:100 *429:103 0.383581
145 *429:99 *429:102 1.4
146 *429:99 *429:101 0.497132
147 *429:98 *429:100 1.4
148 *429:98 *429:99 4.72275
149 *429:97 *429:98 7.45698
150 *429:96 *429:97 1.4
151 *429:94 *429:96 0.0707131
152 *429:92 *661:S0 1.4
153 *429:91 *429:94 1.4
154 *429:89 *662:S0 1.4
155 *429:88 *429:92 0.00214282
156 *429:88 *429:91 1.4
157 *429:86 *663:S0 1.4
158 *429:85 *429:89 0.0385708
159 *429:84 *429:88 0.302138
160 *429:83 *664:S0 1.4
161 *429:82 *429:86 0.0514298
162 *429:81 *429:85 0.00214282
163 *429:80 *429:84 1.4
164 *429:79 *429:83 0.0385724
165 *429:78 *429:82 0.00857164
166 *429:77 *429:81 1.4
167 *429:77 *429:80 2.98279
168 *429:76 *429:79 0.0985738
169 *429:75 *429:78 1.4
170 *429:75 *429:77 4.84704
171 *429:74 *429:76 1.4
172 *429:74 *429:75 4.10153
173 *429:71 *429:74 3.48009
174 *429:70 *665:S0 1.4
175 *429:69 *666:S0 1.4
176 *429:68 *429:71 1.4
177 *429:67 *429:70 0.0364295
178 *429:65 *429:69 0.0107145
179 *429:64 *429:68 0.372866
180 *429:64 *429:67 0.0407153
181 *429:62 *652:S0 1.4
182 *429:61 *429:65 0.475724
183 *429:60 *429:64 1.4
184 *429:59 *669:S0 1.4
185 *429:58 *429:62 0.0600013
186 *429:57 *429:61 1.4
187 *429:57 *429:60 7.82999
188 *429:56 *429:59 0.0428565
189 *429:55 *429:58 0.0514297
190 *429:53 *429:57 3.23136
191 *429:52 *429:56 0.0535706
192 *429:51 *429:55 1.4
193 *429:50 *667:S0 1.4
194 *429:49 *429:53 1.4
195 *429:48 *429:52 1.4
196 *429:47 *429:51 0.124283
197 *429:46 *429:50 0.0235719
198 *429:46 *429:49 1.01359
199 *429:44 *429:48 0.745698
200 *429:43 *429:47 1.4
201 *429:43 *429:46 4.45509
202 *429:42 *671:S0 1.4
203 *429:41 *429:44 1.4
204 *429:41 *429:43 7.58136
205 *429:40 *429:42 0.0578557
206 *429:39 *429:41 3.8528
207 *429:37 *429:40 0.0428561
208 *429:36 *429:39 1.4
209 *429:35 *670:S0 1.4
210 *429:34 *429:37 1.4
211 *429:33 *429:36 1.11855
212 *429:32 *429:35 0.0149998
213 *429:31 *429:34 0.248566
214 *429:30 *429:33 1.4
215 *429:30 *429:32 0.0578562
216 *429:29 *429:31 1.4
217 *429:29 *429:30 5.21988
218 *429:27 *429:29 2.60994
219 *429:25 *672:S0 1.4
220 *429:24 *429:27 1.4
221 *429:23 *673:S0 1.4
222 *429:22 *429:25 0.0342849
223 *429:21 *429:24 0.124283
224 *429:20 *429:23 0.0557135
225 *429:19 *429:22 1.4
226 *429:18 *429:21 1.4
227 *429:17 *429:20 0.0814274
228 *429:16 *429:19 1.4
229 *429:16 *429:18 0.760696
230 *429:15 *429:17 1.4
231 *429:14 *429:16 7.442
232 *429:12 *429:15 0.745733
233 *429:12 *429:14 1.4
234 *429:11 *674:S0 1.4
235 *429:10 *429:12 0.248578
236 *429:9 *429:11 0.0149998
237 *429:8 *429:10 1.4
238 *429:7 *429:9 0.259282
239 *429:6 *429:8 3.72852
240 *429:5 *429:7 1.4
241 *429:5 *429:6 1.4
242 *429:4 *429:5 3.72866
243 *429:3 *429:4 1.4
244 *429:2 *429:3 0.137141
245 *429:1 *429:2 0.0235711
246 *675:S0 *429:1 1.4
*END

*D_NET *430 0.00155777

*CONN
*I *640:A1 I *C 93.8835 10.8175 *L 0.00274 *D AOI32X1
*I *1008:B I *C 93.617 11.432 *L 0.00172 *D AND3XL
*I *641:A I *C 86.59 11.207 *L 0.0017 *D MX2X1
*I *734:Y O *C 97.366 11.693 *L 0 *D NOR3X1

*CAP
1 *430:1 3.24388e-06
2 *430:2 5.79264e-06
3 *430:3 2.54876e-06
4 *430:4 1.3633e-05
5 *430:5 0.000122697
6 *430:6 2.57193e-05
7 *430:7 0.000327192
8 *430:8 2.989e-05
9 *430:9 6.71946e-05
10 *430:10 0.000218128
11 *430:11 4.1707e-06
12 *430:12 6.71946e-05
13 *430:13 1.52926e-05
14 *430:15 0.000286293
15 *430:16 1.64511e-05
16 *430:17 0.000286293
17 *430:18 1.15853e-06
18 *430:19 2.91949e-05
19 *430:21 2.91949e-05
20 *430:23 3.24388e-06
21 *430:24 3.24388e-06

*RES
1 *430:24 *734:Y 1.4
2 *430:23 *430:24 0.0299995
3 *430:22 *430:23 1.4
4 *430:21 *430:22 1.4
5 *430:19 *430:21 0.269996
6 *430:18 *641:A 1.4
7 *430:17 *430:19 1.4
8 *430:16 *430:18 0.0107141
9 *430:15 *430:17 2.60994
10 *430:13 *430:16 0.141426
11 *430:12 *430:15 1.4
12 *430:11 *1008:B 1.4
13 *430:10 *430:13 1.4
14 *430:9 *430:12 0.621419
15 *430:8 *430:11 0.0385708
16 *430:7 *430:10 1.98852
17 *430:7 *430:9 1.4
18 *430:6 *430:8 0.237853
19 *430:5 *430:7 0.994261
20 *430:5 *430:6 1.4
21 *430:4 *430:5 0.124283
22 *430:3 *430:4 1.4
23 *430:2 *430:3 0.0235711
24 *430:1 *430:2 0.0299995
25 *640:A1 *430:1 1.4
*END

*D_NET *431 0.000485488

*CONN
*I *614:D I *C 57.1505 90.74 *L 0.00276 *D SDFFRHQX1
*I *718:Y O *C 53.657 90.109 *L 0 *D MX2X1

*CAP
1 *431:1 6.46841e-06
2 *431:2 1.24193e-05
3 *431:3 5.95094e-06
4 *431:4 0.00019643
5 *431:5 0.00019643
6 *431:6 2.66499e-05
7 *431:7 3.38945e-05
8 *431:8 7.24462e-06

*RES
1 *431:8 *718:Y 1.4
2 *431:7 *431:8 0.059999
3 *431:6 *431:7 0.22071
4 *431:5 *431:6 1.4
5 *431:4 *431:5 1.4914
6 *431:3 *431:4 1.4
7 *431:2 *431:3 0.0492849
8 *431:1 *431:2 0.0535705
9 *614:D *431:1 1.4
*END

*D_NET *432 0.000425703

*CONN
*I *613:D I *C 68 91.2765 *L 0.00276 *D SDFFRHQX1
*I *717:Y O *C 65.121 90.3455 *L 0 *D MX2X1

*CAP
1 *432:1 2.58736e-07
2 *432:2 1.88878e-05
3 *432:3 1.8629e-05
4 *432:4 0.000163692
5 *432:5 0.000163692
6 *432:6 2.9496e-05
7 *432:7 3.02722e-05
8 *432:8 7.76209e-07

*RES
1 *432:8 *717:Y 1.4
2 *432:7 *432:8 0.00642846
3 *432:6 *432:7 0.244281
4 *432:5 *432:6 1.4
5 *432:4 *432:5 1.24283
6 *432:3 *432:4 1.4
7 *432:2 *432:3 0.154283
8 *432:1 *432:2 0.00214282
9 *613:D *432:1 1.4
*END

*D_NET *433 0.000509154

*CONN
*I *612:D I *C 74.826 92.9055 *L 0.00276 *D SDFFRHQX1
*I *716:Y O *C 71.85 91.6815 *L 0 *D MX2X1

*CAP
1 *433:1 7.24462e-06
2 *433:2 3.51882e-05
3 *433:3 2.79435e-05
4 *433:4 0.000180061
5 *433:5 0.000180061
6 *433:6 3.54469e-05
7 *433:7 3.93279e-05
8 *433:8 3.88105e-06

*RES
1 *433:8 *716:Y 1.4
2 *433:7 *433:8 0.0321423
3 *433:6 *433:7 0.293566
4 *433:5 *433:6 1.4
5 *433:4 *433:5 1.36711
6 *433:3 *433:4 1.4
7 *433:2 *433:3 0.231425
8 *433:1 *433:2 0.059999
9 *612:D *433:1 1.4
*END

*D_NET *434 0.000564937

*CONN
*I *611:D I *C 93.403 93.7675 *L 0.00276 *D SDFFRHQX1
*I *715:Y O *C 89.168 93.1265 *L 0 *D MX2X1

*CAP
1 *434:1 6.38193e-06
2 *434:2 1.94117e-05
3 *434:3 1.30298e-05
4 *434:4 0.000241518
5 *434:5 0.000241518
6 *434:6 2.12731e-05
7 *434:7 2.1539e-05
8 *434:8 2.65914e-07

*RES
1 *434:8 *715:Y 1.4
2 *434:7 *434:8 0.00214291
3 *434:6 *434:7 0.171433
4 *434:5 *434:6 1.4
5 *434:4 *434:5 1.86425
6 *434:3 *434:4 1.4
7 *434:2 *434:3 0.105003
8 *434:1 *434:2 0.0514298
9 *611:D *434:1 1.4
*END

*D_NET *435 0.000397304

*CONN
*I *610:D I *C 101.949 92.175 *L 0.00276 *D SDFFRHQX1
*I *714:Y O *C 98.889 92.4195 *L 0 *D MX2X1

*CAP
1 *435:1 7.97741e-07
2 *435:2 1.09025e-05
3 *435:3 1.01047e-05
4 *435:4 0.000177113
5 *435:5 0.000177113
6 *435:6 2.92505e-06
7 *435:7 1.06365e-05
8 *435:8 7.7115e-06

*RES
1 *435:8 *714:Y 1.4
2 *435:7 *435:8 0.0621444
3 *435:6 *435:7 0.023572
4 *435:5 *435:6 1.4
5 *435:4 *435:5 1.36711
6 *435:3 *435:4 1.4
7 *435:2 *435:3 0.0814306
8 *435:1 *435:2 0.00642873
9 *610:D *435:1 1.4
*END

*D_NET *436 0.000391347

*CONN
*I *609:D I *C 102.922 85.242 *L 0.00276 *D SDFFRHQX1
*I *713:Y O *C 100.852 86.521 *L 0 *D MX2X1

*CAP
1 *436:1 6.11601e-06
2 *436:2 7.65831e-05
3 *436:3 7.04671e-05
4 *436:4 0.000112708
5 *436:5 0.000112708
6 *436:6 2.39322e-06
7 *436:7 6.38193e-06
8 *436:8 3.9887e-06

*RES
1 *436:8 *713:Y 1.4
2 *436:7 *436:8 0.0321436
3 *436:6 *436:7 0.0192862
4 *436:5 *436:6 1.4
5 *436:4 *436:5 0.869981
6 *436:3 *436:4 1.4
7 *436:2 *436:3 0.567871
8 *436:1 *436:2 0.0492869
9 *609:D *436:1 1.4
*END

*D_NET *437 0.00036673

*CONN
*I *608:D I *C 98.8415 64.501 *L 0.00276 *D SDFFRHQX1
*I *712:Y O *C 97.74 66.7755 *L 0 *D MX2X1

*CAP
1 *437:1 4.99325e-06
2 *437:2 6.30727e-06
3 *437:3 1.31401e-06
4 *437:4 2.95614e-05
5 *437:5 2.95614e-05
6 *437:6 0.000121941
7 *437:7 0.000121941
8 *437:8 1.47807e-05
9 *437:9 1.47807e-05
10 *437:10 3.67924e-06
11 *437:11 1.07749e-05
12 *437:12 7.09568e-06

*RES
1 *437:12 *712:Y 1.4
2 *437:11 *437:12 0.0578579
3 *437:10 *437:11 0.0300004
4 *437:9 *437:10 1.4
5 *437:8 *437:9 0.124283
6 *437:7 *437:8 1.4
7 *437:6 *437:7 0.994299
8 *437:5 *437:6 1.4
9 *437:4 *437:5 0.248566
10 *437:3 *437:4 1.4
11 *437:2 *437:3 0.0107144
12 *437:1 *437:2 0.0407148
13 *608:D *437:1 1.4
*END

*D_NET *438 0.000358448

*CONN
*I *607:D I *C 96.8465 57.005 *L 0.00276 *D SDFFRHQX1
*I *711:Y O *C 95.527 59.131 *L 0 *D MX2X1

*CAP
1 *438:1 6.83287e-06
2 *438:2 6.67519e-05
3 *438:3 5.9919e-05
4 *438:4 5.91229e-05
5 *438:5 5.91229e-05
6 *438:6 5.17722e-05
7 *438:7 5.3349e-05
8 *438:8 1.57682e-06

*RES
1 *438:8 *711:Y 1.4
2 *438:7 *438:8 0.0128573
3 *438:6 *438:7 0.422148
4 *438:5 *438:6 1.4
5 *438:4 *438:5 0.497133
6 *438:3 *438:4 1.4
7 *438:2 *438:3 0.488578
8 *438:1 *438:2 0.055715
9 *607:D *438:1 1.4
*END

*D_NET *439 0.000487083

*CONN
*I *606:D I *C 96.6675 42.9375 *L 0.00276 *D SDFFRHQX1
*I *710:Y O *C 95.8085 45.6015 *L 0 *D MX2X1

*CAP
1 *439:1 2.33752e-06
2 *439:2 2.59725e-05
3 *439:3 2.3635e-05
4 *439:4 3.0767e-05
5 *439:5 3.0767e-05
6 *439:6 0.000165705
7 *439:7 0.000165705
8 *439:8 1.53835e-05
9 *439:9 1.53835e-05
10 *439:10 3.89587e-06
11 *439:11 5.71395e-06
12 *439:12 1.81807e-06

*RES
1 *439:12 *710:Y 1.4
2 *439:11 *439:12 0.0149996
3 *439:10 *439:11 0.0321421
4 *439:9 *439:10 1.4
5 *439:8 *439:9 0.124288
6 *439:7 *439:8 1.4
7 *439:6 *439:7 1.36711
8 *439:5 *439:6 1.4
9 *439:4 *439:5 0.248575
10 *439:3 *439:4 1.4
11 *439:2 *439:3 0.194995
12 *439:1 *439:2 0.0192852
13 *606:D *439:1 1.4
*END

*D_NET *440 0.000295764

*CONN
*I *605:D I *C 91.6925 34.855 *L 0.00276 *D SDFFRHQX1
*I *709:Y O *C 93.496 35.807 *L 0 *D MX2X1

*CAP
1 *440:1 4.67505e-06
2 *440:2 9.3501e-06
3 *440:3 4.67505e-06
4 *440:4 9.2301e-05
5 *440:5 9.2301e-05
6 *440:6 4.46727e-05
7 *440:7 4.6231e-05
8 *440:8 1.55835e-06

*RES
1 *440:8 *709:Y 1.4
2 *440:7 *440:8 0.0128568
3 *440:6 *440:7 0.368562
4 *440:5 *440:6 1.4
5 *440:4 *440:5 0.745726
6 *440:3 *440:4 1.4
7 *440:2 *440:3 0.0385705
8 *440:1 *440:2 0.0385705
9 *605:D *440:1 1.4
*END

*D_NET *441 0.000263587

*CONN
*I *604:D I *C 74.774 34.306 *L 0.00276 *D SDFFRHQX1
*I *708:Y O *C 76.271 34.021 *L 0 *D MX2X1

*CAP
1 *441:1 5.03155e-06
2 *441:2 2.2642e-05
3 *441:3 1.76104e-05
4 *441:4 6.99056e-05
5 *441:5 6.99056e-05
6 *441:6 3.19504e-05
7 *441:7 3.92461e-05
8 *441:8 7.29575e-06

*RES
1 *441:8 *708:Y 1.4
2 *441:7 *441:8 0.0621413
3 *441:6 *441:7 0.272136
4 *441:5 *441:6 1.4
5 *441:4 *441:5 0.621413
6 *441:3 *441:4 1.4
7 *441:2 *441:3 0.149996
8 *441:1 *441:2 0.0428561
9 *604:D *441:1 1.4
*END

*D_NET *442 0.000295501

*CONN
*I *635:D I *C 70.122 38.5025 *L 0.00276 *D SDFFRHQX1
*I *707:Y O *C 68.918 36.81 *L 0 *D MX2X1

*CAP
1 *442:1 4.27682e-06
2 *442:2 8.30206e-06
3 *442:3 4.02524e-06
4 *442:4 5.59244e-05
5 *442:5 5.59244e-05
6 *442:6 8.12596e-05
7 *442:7 8.35238e-05
8 *442:8 2.2642e-06

*RES
1 *442:8 *707:Y 1.4
2 *442:7 *442:8 0.0192852
3 *442:6 *442:7 0.692126
4 *442:5 *442:6 1.4
5 *442:4 *442:5 0.497131
6 *442:3 *442:4 1.4
7 *442:2 *442:3 0.0342849
8 *442:1 *442:2 0.0364277
9 *635:D *442:1 1.4
*END

*D_NET *443 0.000515562

*CONN
*I *634:D I *C 71.2545 58.1825 *L 0.00276 *D SDFFRHQX1
*I *706:Y O *C 70.279 56.7025 *L 0 *D MX2X1

*CAP
1 *443:1 2.85081e-06
2 *443:2 4.75135e-06
3 *443:3 1.90054e-06
4 *443:4 1.45776e-05
5 *443:5 1.45776e-05
6 *443:6 0.000137789
7 *443:7 0.000137789
8 *443:8 2.91552e-05
9 *443:9 2.91552e-05
10 *443:10 6.93697e-05
11 *443:11 7.15078e-05
12 *443:12 2.13811e-06

*RES
1 *443:12 *706:Y 1.4
2 *443:11 *443:12 0.0192856
3 *443:10 *443:11 0.625712
4 *443:9 *443:10 1.4
5 *443:8 *443:9 0.248577
6 *443:7 *443:8 1.4
7 *443:6 *443:7 1.24285
8 *443:5 *443:6 1.4
9 *443:4 *443:5 0.124289
10 *443:3 *443:4 1.4
11 *443:2 *443:3 0.0171428
12 *443:1 *443:2 0.0257142
13 *634:D *443:1 1.4
*END

*D_NET *444 2.66075e-05

*CONN
*I *633:D I *C 68.2675 61.583 *L 0.00276 *D SDFFRHQX1
*I *705:Y O *C 68.434 61.4675 *L 0 *D MX2X1

*CAP
1 *444:1 1.18784e-06
2 *444:2 6.65189e-06
3 *444:3 1.21159e-05
4 *444:4 6.65189e-06

*RES
1 *444:4 *705:Y 1.4
2 *444:3 *444:4 0.0599998
3 *444:2 *444:3 0.0492855
4 *444:1 *444:2 0.0107142
5 *633:D *444:1 1.4
*END

*D_NET *445 0.000141093

*CONN
*I *632:D I *C 47.6245 61.5495 *L 0.00276 *D SDFFRHQX1
*I *704:Y O *C 48.1605 62.2255 *L 0 *D MX2X1

*CAP
1 *445:1 3.85652e-06
2 *445:2 7.472e-06
3 *445:3 3.61549e-06
4 *445:4 2.81247e-05
5 *445:5 2.81247e-05
6 *445:6 2.89239e-05
7 *445:7 3.49497e-05
8 *445:8 6.02581e-06

*RES
1 *445:8 *704:Y 1.4
2 *445:7 *445:8 0.0535701
3 *445:6 *445:7 0.257137
4 *445:5 *445:6 1.4
5 *445:4 *445:5 0.248565
6 *445:3 *445:4 1.4
7 *445:2 *445:3 0.0321421
8 *445:1 *445:2 0.0342849
9 *632:D *445:1 1.4
*END

*D_NET *446 0.000256953

*CONN
*I *631:D I *C 44.813 57.517 *L 0.00276 *D SDFFRHQX1
*I *703:Y O *C 43.881 59.24 *L 0 *D MX2X1

*CAP
1 *446:1 4.82065e-07
2 *446:2 4.4832e-05
3 *446:3 4.435e-05
4 *446:4 4.21871e-05
5 *446:5 4.21871e-05
6 *446:6 3.88062e-05
7 *446:7 4.14576e-05
8 *446:8 2.65136e-06

*RES
1 *446:8 *703:Y 1.4
2 *446:7 *446:8 0.0235709
3 *446:6 *446:7 0.344992
4 *446:5 *446:6 1.4
5 *446:4 *446:5 0.372848
6 *446:3 *446:4 1.4
7 *446:2 *446:3 0.394276
8 *446:1 *446:2 0.00428561
9 *631:D *446:1 1.4
*END

*D_NET *447 8.31196e-05

*CONN
*I *651:A1 I *C 71.768 11.3705 *L 0.00278 *D AOI21X1
*I *702:Y O *C 71.5765 11.843 *L 0 *D OAI21X1

*CAP
1 *447:1 2.43476e-07
2 *447:2 4.38256e-06
3 *447:3 4.13909e-06
4 *447:4 1.38036e-05
5 *447:5 1.38036e-05
6 *447:6 1.89911e-05
7 *447:7 2.33737e-05
8 *447:8 4.38256e-06

*RES
1 *447:8 *702:Y 1.4
2 *447:7 *447:8 0.0385705
3 *447:6 *447:7 0.167139
4 *447:5 *447:6 1.4
5 *447:4 *447:5 0.124284
6 *447:3 *447:4 1.4
7 *447:2 *447:3 0.0364277
8 *447:1 *447:2 0.0021428
9 *651:A1 *447:1 1.4
*END

*D_NET *448 0.000375703

*CONN
*I *629:D I *C 49.0365 34.005 *L 0.00276 *D SDFFRHQX1
*I *701:Y O *C 47.3005 35.859 *L 0 *D MX2X1

*CAP
1 *448:1 6.03382e-06
2 *448:2 9.55355e-06
3 *448:3 3.51973e-06
4 *448:4 8.27623e-05
5 *448:5 8.27623e-05
6 *448:6 8.97531e-05
7 *448:7 9.55355e-05
8 *448:8 5.78241e-06

*RES
1 *448:8 *701:Y 1.4
2 *448:7 *448:8 0.0492869
3 *448:6 *448:7 0.765019
4 *448:5 *448:6 1.4
5 *448:4 *448:5 0.745696
6 *448:3 *448:4 1.4
7 *448:2 *448:3 0.0300007
8 *448:1 *448:2 0.0514298
9 *629:D *448:1 1.4
*END

*D_NET *449 0.000448569

*CONN
*I *628:D I *C 50.8065 15.0185 *L 0.00276 *D SDFFRHQX1
*I *700:Y O *C 49.619 17.428 *L 0 *D MX2X1

*CAP
1 *449:1 4.74984e-06
2 *449:2 9.23581e-06
3 *449:3 4.48596e-06
4 *449:4 3.25823e-05
5 *449:5 3.25823e-05
6 *449:6 0.000137745
7 *449:7 0.000137745
8 *449:8 3.25823e-05
9 *449:9 3.25823e-05
10 *449:10 6.06925e-06
11 *449:11 1.21385e-05
12 *449:12 6.06925e-06

*RES
1 *449:12 *700:Y 1.4
2 *449:11 *449:12 0.0492848
3 *449:10 *449:11 0.0492848
4 *449:9 *449:10 1.4
5 *449:8 *449:9 0.248565
6 *449:7 *449:8 1.4
7 *449:6 *449:7 1.11855
8 *449:5 *449:6 1.4
9 *449:4 *449:5 0.248565
10 *449:3 *449:4 1.4
11 *449:2 *449:3 0.0364279
12 *449:1 *449:2 0.0385707
13 *628:D *449:1 1.4
*END

*D_NET *450 0.000238937

*CONN
*I *627:D I *C 47.262 9.464 *L 0.00276 *D SDFFRHQX1
*I *699:Y O *C 47.3165 11.144 *L 0 *D MX2X1

*CAP
1 *450:1 7.12477e-06
2 *450:2 9.6844e-05
3 *450:3 8.97193e-05
4 *450:4 1.62912e-05
5 *450:5 1.62912e-05
6 *450:6 1.05552e-06
7 *450:7 6.33313e-06
8 *450:8 5.2776e-06

*RES
1 *450:8 *699:Y 1.4
2 *450:7 *450:8 0.0428564
3 *450:6 *450:7 0.00857127
4 *450:5 *450:6 1.4
5 *450:4 *450:5 0.124283
6 *450:3 *450:4 1.4
7 *450:2 *450:3 0.728558
8 *450:1 *450:2 0.0578561
9 *627:D *450:1 1.4
*END

*D_NET *451 0.000306662

*CONN
*I *626:D I *C 20.977 8.923 *L 0.00276 *D SDFFRHQX1
*I *698:Y O *C 22.4875 10.173 *L 0 *D MX2X1

*CAP
1 *451:1 2.54382e-06
2 *451:2 6.61393e-06
3 *451:3 4.07011e-06
4 *451:4 7.82883e-05
5 *451:5 7.82883e-05
6 *451:6 6.76656e-05
7 *451:7 6.84287e-05
8 *451:8 7.63146e-07

*RES
1 *451:8 *698:Y 1.4
2 *451:7 *451:8 0.00642848
3 *451:6 *451:7 0.569992
4 *451:5 *451:6 1.4
5 *451:4 *451:5 0.621444
6 *451:3 *451:4 1.4
7 *451:2 *451:3 0.0342852
8 *451:1 *451:2 0.0214283
9 *626:D *451:1 1.4
*END

*D_NET *452 6.13324e-05

*CONN
*I *625:D I *C 14.7 11.0305 *L 0.00276 *D SDFFRHQX1
*I *697:Y O *C 14.85 11.1825 *L 0 *D MX2X1

*CAP
1 *452:1 2.7982e-06
2 *452:2 9.66651e-06
3 *452:3 6.86831e-06
4 *452:4 1.56577e-05
5 *452:5 1.56577e-05
6 *452:6 1.01753e-06
7 *452:7 5.34202e-06
8 *452:8 4.32449e-06

*RES
1 *452:8 *697:Y 1.4
2 *452:7 *452:8 0.036428
3 *452:6 *452:7 0.00857131
4 *452:5 *452:6 1.4
5 *452:4 *452:5 0.124289
6 *452:3 *452:4 1.4
7 *452:2 *452:3 0.0578563
8 *452:1 *452:2 0.0235711
9 *625:D *452:1 1.4
*END

*D_NET *453 0.000227751

*CONN
*I *624:D I *C 14.651 19.672 *L 0.00276 *D SDFFRHQX1
*I *696:Y O *C 13.724 18.409 *L 0 *D MX2X1

*CAP
1 *453:1 2.54382e-07
2 *453:2 5.08764e-06
3 *453:3 4.83326e-06
4 *453:4 4.6973e-05
5 *453:5 4.6973e-05
6 *453:6 5.9271e-05
7 *453:7 6.18148e-05
8 *453:8 2.54382e-06

*RES
1 *453:8 *696:Y 1.4
2 *453:7 *453:8 0.0214283
3 *453:6 *453:7 0.499279
4 *453:5 *453:6 1.4
5 *453:4 *453:5 0.372866
6 *453:3 *453:4 1.4
7 *453:2 *453:3 0.0407137
8 *453:1 *453:2 0.00214283
9 *624:D *453:1 1.4
*END

*D_NET *454 0.000328865

*CONN
*I *623:D I *C 17.392 35.997 *L 0.00276 *D SDFFRHQX1
*I *695:Y O *C 16.146 34.376 *L 0 *D MX2X1

*CAP
1 *454:1 7.01282e-06
2 *454:2 1.2727e-05
3 *454:3 5.71415e-06
4 *454:4 5.92401e-05
5 *454:5 5.92401e-05
6 *454:6 8.9868e-05
7 *454:7 9.24653e-05
8 *454:8 2.59734e-06

*RES
1 *454:8 *695:Y 1.4
2 *454:7 *454:8 0.021428
3 *454:6 *454:7 0.74141
4 *454:5 *454:6 1.4
5 *454:4 *454:5 0.497133
6 *454:3 *454:4 1.4
7 *454:2 *454:3 0.0471417
8 *454:1 *454:2 0.0578557
9 *623:D *454:1 1.4
*END

*D_NET *455 0.000296658

*CONN
*I *622:D I *C 18.4175 43.5825 *L 0.00276 *D SDFFRHQX1
*I *694:Y O *C 17.3995 42.02 *L 0 *D MX2X1

*CAP
1 *455:1 2.59734e-07
2 *455:2 7.24658e-05
3 *455:3 7.22061e-05
4 *455:4 5.92401e-05
5 *455:5 5.92401e-05
6 *455:6 9.09069e-06
7 *455:7 1.6623e-05
8 *455:8 7.53229e-06

*RES
1 *455:8 *694:Y 1.4
2 *455:7 *455:8 0.0621413
3 *455:6 *455:7 0.0749982
4 *455:5 *455:6 1.4
5 *455:4 *455:5 0.497133
6 *455:3 *455:4 1.4
7 *455:2 *455:3 0.5957
8 *455:1 *455:2 0.0021428
9 *622:D *455:1 1.4
*END

*D_NET *456 0.000284914

*CONN
*I *621:D I *C 17.8655 56.5685 *L 0.00276 *D SDFFRHQX1
*I *693:Y O *C 17.1455 54.628 *L 0 *D MX2X1

*CAP
1 *456:1 1.60604e-06
2 *456:2 0.000103589
3 *456:3 0.000101983
4 *456:4 3.1105e-05
5 *456:5 3.1105e-05
6 *456:6 1.87371e-06
7 *456:7 7.76251e-06
8 *456:8 5.8888e-06

*RES
1 *456:8 *693:Y 1.4
2 *456:7 *456:8 0.0471421
3 *456:6 *456:7 0.0149998
4 *456:5 *456:6 1.4
5 *456:4 *456:5 0.248566
6 *456:3 *456:4 1.4
7 *456:2 *456:3 0.816416
8 *456:1 *456:2 0.0128569
9 *621:D *456:1 1.4
*END

*D_NET *457 0.000230789

*CONN
*I *620:D I *C 15.6975 64.742 *L 0.00276 *D SDFFRHQX1
*I *692:Y O *C 15.5835 63.05 *L 0 *D MX2X1

*CAP
1 *457:1 5.62113e-06
2 *457:2 1.71311e-05
3 *457:3 1.15099e-05
4 *457:4 1.55525e-05
5 *457:5 1.55525e-05
6 *457:6 7.89635e-05
7 *457:7 8.27109e-05
8 *457:8 3.74742e-06

*RES
1 *457:8 *692:Y 1.4
2 *457:7 *457:8 0.0299995
3 *457:6 *457:7 0.632133
4 *457:5 *457:6 1.4
5 *457:4 *457:5 0.124283
6 *457:3 *457:4 1.4
7 *457:2 *457:3 0.0921414
8 *457:1 *457:2 0.0449993
9 *620:D *457:1 1.4
*END

*D_NET *458 0.000414128

*CONN
*I *619:D I *C 12.1705 83.578 *L 0.00276 *D SDFFRHQX1
*I *691:Y O *C 12.16 80.872 *L 0 *D MX2X1

*CAP
1 *458:1 7.10615e-06
2 *458:2 1.15804e-05
3 *458:3 4.47424e-06
4 *458:4 1.5363e-05
5 *458:5 1.5363e-05
6 *458:6 0.000152651
7 *458:7 0.000152651
8 *458:8 1.5363e-05
9 *458:9 1.5363e-05
10 *458:10 5.527e-06
11 *458:11 1.21068e-05
12 *458:12 6.57977e-06

*RES
1 *458:12 *691:Y 1.4
2 *458:11 *458:12 0.0535726
3 *458:10 *458:11 0.045001
4 *458:9 *458:10 1.4
5 *458:8 *458:9 0.124283
6 *458:7 *458:8 1.4
7 *458:6 *458:7 1.24288
8 *458:5 *458:6 1.4
9 *458:4 *458:5 0.124283
10 *458:3 *458:4 1.4
11 *458:2 *458:3 0.0364293
12 *458:1 *458:2 0.0578584
13 *619:D *458:1 1.4
*END

*D_NET *459 0.000293452

*CONN
*I *618:D I *C 13.409 92.0385 *L 0.00276 *D SDFFRHQX1
*I *690:Y O *C 12.2865 90.5365 *L 0 *D MX2X1

*CAP
1 *459:1 3.94786e-06
2 *459:2 1.73706e-05
3 *459:3 1.34227e-05
4 *459:4 6.14521e-05
5 *459:5 6.14521e-05
6 *459:6 6.57977e-05
7 *459:7 6.79032e-05
8 *459:8 2.10553e-06

*RES
1 *459:8 *690:Y 1.4
2 *459:7 *459:8 0.0171432
3 *459:6 *459:7 0.535726
4 *459:5 *459:6 1.4
5 *459:4 *459:5 0.497132
6 *459:3 *459:4 1.4
7 *459:2 *459:3 0.109288
8 *459:1 *459:2 0.0321435
9 *618:D *459:1 1.4
*END

*D_NET *460 0.000317396

*CONN
*I *617:D I *C 20.5245 93.7795 *L 0.00276 *D SDFFRHQX1
*I *689:Y O *C 18.2255 93.2815 *L 0 *D MX2X1

*CAP
1 *460:1 4.21105e-06
2 *460:2 1.76338e-05
3 *460:3 1.34227e-05
4 *460:4 0.000122904
5 *460:5 0.000122904
6 *460:6 1.28963e-05
7 *460:7 1.81602e-05
8 *460:8 5.26381e-06

*RES
1 *460:8 *689:Y 1.4
2 *460:7 *460:8 0.042858
3 *460:6 *460:7 0.105002
4 *460:5 *460:6 1.4
5 *460:4 *460:5 0.994265
6 *460:3 *460:4 1.4
7 *460:2 *460:3 0.109288
8 *460:1 *460:2 0.0342864
9 *617:D *460:1 1.4
*END

*D_NET *461 0.000458781

*CONN
*I *616:D I *C 39.471 92.151 *L 0.00276 *D SDFFRHQX1
*I *688:Y O *C 36.278 91.876 *L 0 *D MX2X1

*CAP
1 *461:1 5.94186e-06
2 *461:2 1.70506e-05
3 *461:3 1.11087e-05
4 *461:4 0.000181081
5 *461:5 0.000181081
6 *461:6 2.53175e-05
7 *461:7 3.12594e-05
8 *461:8 5.94186e-06

*RES
1 *461:8 *688:Y 1.4
2 *461:7 *461:8 0.0492869
3 *461:6 *461:7 0.210005
4 *461:5 *461:6 1.4
5 *461:4 *461:5 1.36718
6 *461:3 *461:4 1.4
7 *461:2 *461:3 0.0921451
8 *461:1 *461:2 0.0492869
9 *616:D *461:1 1.4
*END

*D_NET *462 0.000421207

*CONN
*I *615:D I *C 47.0115 90.521 *L 0.00276 *D SDFFRHQX1
*I *687:Y O *C 44.1715 90.012 *L 0 *D MX2X1

*CAP
1 *462:1 5.94186e-06
2 *462:2 1.1367e-05
3 *462:3 5.42518e-06
4 *462:4 0.000164619
5 *462:5 0.000164619
6 *462:6 3.1776e-05
7 *462:7 3.46178e-05
8 *462:8 2.84176e-06

*RES
1 *462:8 *687:Y 1.4
2 *462:7 *462:8 0.023572
3 *462:6 *462:7 0.263578
4 *462:5 *462:6 1.4
5 *462:4 *462:5 1.24289
6 *462:3 *462:4 1.4
7 *462:2 *462:3 0.0450011
8 *462:1 *462:2 0.0492869
9 *615:D *462:1 1.4
*END

*D_NET *463 0.000426487

*CONN
*I *630:D I *C 46.3205 40.762 *L 0.00276 *D SDFFRHQX1
*I *686:Y O *C 44.6015 42.9535 *L 0 *D MX2X1

*CAP
1 *463:1 3.26832e-06
2 *463:2 4.02255e-06
3 *463:3 7.54228e-07
4 *463:4 4.13811e-05
5 *463:5 4.13811e-05
6 *463:6 0.000116654
7 *463:7 0.000116654
8 *463:8 4.13811e-05
9 *463:9 4.13811e-05
10 *463:10 5.531e-06
11 *463:11 9.80496e-06
12 *463:12 4.27396e-06

*RES
1 *463:12 *686:Y 1.4
2 *463:11 *463:12 0.0364295
3 *463:10 *463:11 0.047144
4 *463:9 *463:10 1.4
5 *463:8 *463:9 0.372848
6 *463:7 *463:8 1.4
7 *463:6 *463:7 0.99431
8 *463:5 *463:6 1.4
9 *463:4 *463:5 0.372848
10 *463:3 *463:4 1.4
11 *463:2 *463:3 0.00642873
12 *463:1 *463:2 0.0278578
13 *630:D *463:1 1.4
*END

*D_NET *464 0.000296357

*CONN
*I *684:B I *C 99.644 12.229 *L 0.00167 *D NAND2XL
*I *685:Y O *C 99.2495 11.422 *L 0 *D INVX1
*I *646:A1 I *C 98.7935 12.037 *L 0.00278 *D OAI211X1

*CAP
1 *464:1 1.39023e-06
2 *464:2 1.92316e-05
3 *464:3 1.78413e-05
4 *464:4 1.3633e-05
5 *464:5 4.08989e-05
6 *464:6 5.53776e-05
7 *464:7 2.7266e-05
8 *464:8 5.88532e-05
9 *464:9 2.68778e-05
10 *464:10 3.47558e-06
11 *464:11 2.91949e-05
12 *464:13 2.31706e-06

*RES
1 *464:13 *646:A1 1.4
2 *464:11 *464:13 0.0214282
3 *464:10 *685:Y 1.4
4 *464:9 *464:11 0.248567
5 *464:8 *464:10 0.0321423
6 *464:7 *464:9 1.4
7 *464:6 *464:8 0.512135
8 *464:5 *464:7 0.248565
9 *464:5 *464:6 1.4
10 *464:4 *464:5 0.124283
11 *464:3 *464:4 1.4
12 *464:2 *464:3 0.164997
13 *464:1 *464:2 0.0128569
14 *684:B *464:1 1.4
*END

*D_NET *465 0.00027847

*CONN
*I *602:D I *C 72.7335 59.2175 *L 0.00276 *D SDFFRHQX1
*I *683:Y O *C 71.7725 57.469 *L 0 *D MX2X1

*CAP
1 *465:1 4.27621e-06
2 *465:2 8.31486e-06
3 *465:3 4.03864e-06
4 *465:4 4.37329e-05
5 *465:5 4.37329e-05
6 *465:6 8.71872e-05
7 *465:7 8.71872e-05

*RES
1 *465:7 *683:Y 1.4
2 *465:6 *465:7 0.786425
3 *465:5 *465:6 1.4
4 *465:4 *465:5 0.372866
5 *465:3 *465:4 1.4
6 *465:2 *465:3 0.0364284
7 *465:1 *465:2 0.0385713
8 *602:D *465:1 1.4
*END

*D_NET *466 0.000197329

*CONN
*I *599:D I *C 43.3075 58.9755 *L 0.00276 *D SDFFRHQX1
*I *682:Y O *C 43.1095 60.642 *L 0 *D MX2X1

*CAP
1 *466:1 2.16929e-06
2 *466:2 4.09755e-06
3 *466:3 1.92826e-06
4 *466:4 1.40624e-05
5 *466:5 1.40624e-05
6 *466:6 7.83355e-05
7 *466:7 8.05048e-05
8 *466:8 2.16929e-06

*RES
1 *466:8 *682:Y 1.4
2 *466:7 *466:8 0.0192852
3 *466:6 *466:7 0.696412
4 *466:5 *466:6 1.4
5 *466:4 *466:5 0.124283
6 *466:3 *466:4 1.4
7 *466:2 *466:3 0.0171424
8 *466:1 *466:2 0.0192852
9 *599:D *466:1 1.4
*END

*D_NET *467 0.000122757

*CONN
*I *601:D I *C 68.3085 64.543 *L 0.00276 *D SDFFRHQX1
*I *681:Y O *C 68.542 63.621 *L 0 *D MX2X1

*CAP
1 *467:1 7.12702e-07
2 *467:2 1.66297e-06
3 *467:3 9.50269e-07
4 *467:4 1.45776e-05
5 *467:5 1.45776e-05
6 *467:6 4.29997e-05
7 *467:7 4.51378e-05
8 *467:8 2.13811e-06

*RES
1 *467:8 *681:Y 1.4
2 *467:7 *467:8 0.0192856
3 *467:6 *467:7 0.387856
4 *467:5 *467:6 1.4
5 *467:4 *467:5 0.124289
6 *467:3 *467:4 1.4
7 *467:2 *467:3 0.00857139
8 *467:1 *467:2 0.00642855
9 *601:D *467:1 1.4
*END

*D_NET *468 0.000137236

*CONN
*I *600:D I *C 47.4025 65.6005 *L 0.00276 *D SDFFRHQX1
*I *680:Y O *C 47.9435 64.99 *L 0 *D MX2X1

*CAP
1 *468:1 4.82065e-07
2 *468:2 4.57962e-06
3 *468:3 4.09755e-06
4 *468:4 1.40624e-05
5 *468:5 1.40624e-05
6 *468:6 2.79598e-05
7 *468:7 2.79598e-05
8 *468:8 1.40624e-05
9 *468:9 1.40624e-05
10 *468:10 5.54375e-06
11 *468:11 7.95407e-06
12 *468:12 2.41032e-06

*RES
1 *468:12 *680:Y 1.4
2 *468:11 *468:12 0.021428
3 *468:10 *468:11 0.0492845
4 *468:9 *468:10 1.4
5 *468:8 *468:9 0.124283
6 *468:7 *468:8 1.4
7 *468:6 *468:7 0.248565
8 *468:5 *468:6 1.4
9 *468:4 *468:5 0.124283
10 *468:3 *468:4 1.4
11 *468:2 *468:3 0.0364277
12 *468:1 *468:2 0.00428561
13 *600:D *468:1 1.4
*END

*D_NET *469 0.000425985

*CONN
*I *598:D I *C 44.813 39.946 *L 0.00276 *D SDFFRHQX1
*I *679:Y O *C 43.122 42.4715 *L 0 *D MX2X1

*CAP
1 *469:1 5.02819e-07
2 *469:2 0.000113637
3 *469:3 0.000113134
4 *469:4 8.27623e-05
5 *469:5 8.27623e-05
6 *469:6 1.38275e-05
7 *469:7 1.6593e-05
8 *469:8 2.7655e-06

*RES
1 *469:8 *679:Y 1.4
2 *469:7 *469:8 0.023572
3 *469:6 *469:7 0.11786
4 *469:5 *469:6 1.4
5 *469:4 *469:5 0.745696
6 *469:3 *469:4 1.4
7 *469:2 *469:3 0.964309
8 *469:1 *469:2 0.00428582
9 *598:D *469:1 1.4
*END

*D_NET *470 0.00069449

*CONN
*I *597:D I *C 49.5445 26.1725 *L 0.00276 *D SDFFRHQX1
*I *678:Y O *C 47.5625 31.1965 *L 0 *D MX2X1

*CAP
1 *470:1 5.02819e-06
2 *470:2 8.54792e-06
3 *470:3 3.51973e-06
4 *470:4 4.13811e-05
5 *470:5 4.13811e-05
6 *470:6 0.00024789
7 *470:7 0.00024789
8 *470:8 4.13811e-05
9 *470:9 4.13811e-05
10 *470:10 1.00564e-06
11 *470:11 8.0451e-06
12 *470:12 7.03946e-06

*RES
1 *470:12 *678:Y 1.4
2 *470:11 *470:12 0.0600015
3 *470:10 *470:11 0.00857164
4 *470:9 *470:10 1.4
5 *470:8 *470:9 0.372848
6 *470:7 *470:8 1.4
7 *470:6 *470:7 2.11291
8 *470:5 *470:6 1.4
9 *470:4 *470:5 0.372848
10 *470:3 *470:4 1.4
11 *470:2 *470:3 0.0300007
12 *470:1 *470:2 0.0428582
13 *597:D *470:1 1.4
*END

*D_NET *471 0.000616258

*CONN
*I *596:D I *C 51.7285 7.4865 *L 0.00276 *D SDFFRHQX1
*I *677:Y O *C 50.268 11.521 *L 0 *D MX2X1

*CAP
1 *471:1 1.84716e-06
2 *471:2 6.59701e-06
3 *471:3 4.74984e-06
4 *471:4 3.25823e-05
5 *471:5 3.25823e-05
6 *471:6 0.000214271
7 *471:7 0.000214271
8 *471:8 4.88735e-05
9 *471:9 4.88735e-05
10 *471:10 3.43044e-06
11 *471:11 5.80536e-06
12 *471:12 2.37492e-06

*RES
1 *471:12 *677:Y 1.4
2 *471:11 *471:12 0.0192854
3 *471:10 *471:11 0.0278566
4 *471:9 *471:10 1.4
5 *471:8 *471:9 0.372848
6 *471:7 *471:8 1.4
7 *471:6 *471:7 1.73997
8 *471:5 *471:6 1.4
9 *471:4 *471:5 0.248565
10 *471:3 *471:4 1.4
11 *471:2 *471:3 0.0385707
12 *471:1 *471:2 0.0149997
13 *596:D *471:1 1.4
*END

*D_NET *472 0.000217965

*CONN
*I *595:D I *C 47.647 6.303 *L 0.00276 *D SDFFRHQX1
*I *676:Y O *C 47.637 8.2375 *L 0 *D MX2X1

*CAP
1 *472:1 3.16656e-06
2 *472:2 0.000105288
3 *472:3 0.000105816
4 *472:4 3.69432e-06

*RES
1 *472:4 *676:Y 1.4
2 *472:3 *472:4 0.0299995
3 *472:2 *472:3 0.829271
4 *472:1 *472:2 0.0257138
5 *595:D *472:1 1.4
*END

*D_NET *473 0.000362117

*CONN
*I *594:D I *C 20.3415 6.327 *L 0.00276 *D SDFFRHQX1
*I *675:Y O *C 21.951 7.947 *L 0 *D MX2X1

*CAP
1 *473:1 5.34202e-06
2 *473:2 9.9209e-06
3 *473:3 4.57888e-06
4 *473:4 6.26307e-05
5 *473:5 6.26307e-05
6 *473:6 8.85249e-05
7 *473:7 8.85249e-05
8 *473:8 1.56577e-05
9 *473:9 1.56577e-05
10 *473:10 1.52629e-06
11 *473:11 4.32449e-06
12 *473:12 2.7982e-06

*RES
1 *473:12 *675:Y 1.4
2 *473:11 *473:12 0.0235711
3 *473:10 *473:11 0.012857
4 *473:9 *473:10 1.4
5 *473:8 *473:9 0.124289
6 *473:7 *473:8 1.4
7 *473:6 *473:7 0.745704
8 *473:5 *473:6 1.4
9 *473:4 *473:5 0.497155
10 *473:3 *473:4 1.4
11 *473:2 *473:3 0.0385709
12 *473:1 *473:2 0.0449994
13 *594:D *473:1 1.4
*END

*D_NET *474 0.00016212

*CONN
*I *593:D I *C 12.262 8.298 *L 0.00276 *D SDFFRHQX1
*I *674:Y O *C 13.232 8.87 *L 0 *D MX2X1

*CAP
1 *474:1 3.30697e-06
2 *474:2 3.10346e-05
3 *474:3 2.77276e-05
4 *474:4 4.6973e-05
5 *474:5 4.6973e-05
6 *474:6 1.27191e-06
7 *474:7 3.05258e-06
8 *474:8 1.78067e-06

*RES
1 *474:8 *674:Y 1.4
2 *474:7 *474:8 0.0149998
3 *474:6 *474:7 0.0107141
4 *474:5 *474:6 1.4
5 *474:4 *474:5 0.372866
6 *474:3 *474:4 1.4
7 *474:2 *474:3 0.233568
8 *474:1 *474:2 0.0278567
9 *593:D *474:1 1.4
*END

*D_NET *475 0.000222383

*CONN
*I *592:D I *C 10.315 17.4735 *L 0.00276 *D SDFFRHQX1
*I *673:Y O *C 10.7445 16.775 *L 0 *D MX2X1

*CAP
1 *475:1 1.01753e-06
2 *475:2 1.9333e-05
3 *475:3 1.83155e-05
4 *475:4 3.13153e-05
5 *475:5 3.13153e-05
6 *475:6 5.3929e-05
7 *475:7 6.05429e-05
8 *475:8 6.61393e-06

*RES
1 *475:8 *673:Y 1.4
2 *475:7 *475:8 0.0557135
3 *475:6 *475:7 0.454279
4 *475:5 *475:6 1.4
5 *475:4 *475:5 0.248578
6 *475:3 *475:4 1.4
7 *475:2 *475:3 0.154284
8 *475:1 *475:2 0.00857131
9 *592:D *475:1 1.4
*END

*D_NET *476 0.000226509

*CONN
*I *591:D I *C 12.071 35.824 *L 0.00276 *D SDFFRHQX1
*I *672:Y O *C 12.6925 34.33 *L 0 *D MX2X1

*CAP
1 *476:1 1.81814e-06
2 *476:2 2.33761e-06
3 *476:3 5.19468e-07
4 *476:4 2.962e-05
5 *476:5 2.962e-05
6 *476:6 7.7141e-05
7 *476:7 8.12968e-05
8 *476:8 4.15574e-06

*RES
1 *476:8 *672:Y 1.4
2 *476:7 *476:8 0.0342849
3 *476:6 *476:7 0.636413
4 *476:5 *476:6 1.4
5 *476:4 *476:5 0.248566
6 *476:3 *476:4 1.4
7 *476:2 *476:3 0.00428561
8 *476:1 *476:2 0.0149996
9 *591:D *476:1 1.4
*END

*D_NET *477 0.000303411

*CONN
*I *590:D I *C 12.325 43.9395 *L 0.00276 *D SDFFRHQX1
*I *671:Y O *C 13.3495 42.2935 *L 0 *D MX2X1

*CAP
1 *477:1 6.0518e-05
2 *477:2 6.0518e-05
3 *477:3 5.92401e-05
4 *477:4 5.92401e-05
5 *477:5 2.49345e-05
6 *477:6 3.19473e-05
7 *477:7 7.01282e-06

*RES
1 *477:7 *671:Y 1.4
2 *477:6 *477:7 0.0578557
3 *477:5 *477:6 0.205709
4 *477:4 *477:5 1.4
5 *477:3 *477:4 0.497133
6 *477:2 *477:3 1.4
7 *477:1 *477:2 0.499274
8 *590:D *477:1 1.4
*END

*D_NET *478 0.000418915

*CONN
*I *589:D I *C 11.593 56.286 *L 0.00276 *D SDFFRHQX1
*I *670:Y O *C 12.8705 54.5105 *L 0 *D MX2X1

*CAP
1 *478:1 7.49484e-06
2 *478:2 1.3919e-05
3 *478:3 6.42415e-06
4 *478:4 3.1105e-05
5 *478:5 3.1105e-05
6 *478:6 0.000108675
7 *478:7 0.000108675
8 *478:8 4.66575e-05
9 *478:9 4.66575e-05
10 *478:10 7.22717e-06
11 *478:11 9.10088e-06
12 *478:12 1.87371e-06

*RES
1 *478:12 *670:Y 1.4
2 *478:11 *478:12 0.0149998
3 *478:10 *478:11 0.0578562
4 *478:9 *478:10 1.4
5 *478:8 *478:9 0.372849
6 *478:7 *478:8 1.4
7 *478:6 *478:7 0.869986
8 *478:5 *478:6 1.4
9 *478:4 *478:5 0.248566
10 *478:3 *478:4 1.4
11 *478:2 *478:3 0.0514278
12 *478:1 *478:2 0.0599991
13 *589:D *478:1 1.4
*END

*D_NET *479 0.000378174

*CONN
*I *588:D I *C 10.786 65.371 *L 0.00276 *D SDFFRHQX1
*I *669:Y O *C 11.9335 63.4895 *L 0 *D MX2X1

*CAP
1 *479:1 4.81811e-06
2 *479:2 6.15648e-06
3 *479:3 1.33836e-06
4 *479:4 3.1105e-05
5 *479:5 3.1105e-05
6 *479:6 0.000108675
7 *479:7 0.000108675
8 *479:8 3.1105e-05
9 *479:9 3.1105e-05
10 *479:10 6.69182e-06
11 *479:11 1.20453e-05
12 *479:12 5.35346e-06

*RES
1 *479:12 *669:Y 1.4
2 *479:11 *479:12 0.0428565
3 *479:10 *479:11 0.0535706
4 *479:9 *479:10 1.4
5 *479:8 *479:9 0.248566
6 *479:7 *479:8 1.4
7 *479:6 *479:7 0.869986
8 *479:5 *479:6 1.4
9 *479:4 *479:5 0.248566
10 *479:3 *479:4 1.4
11 *479:2 *479:3 0.0107141
12 *479:1 *479:2 0.0385708
13 *588:D *479:1 1.4
*END

*D_NET *480 0.000326985

*CONN
*I *603:D I *C 71.613 38.802 *L 0.00276 *D SDFFRHQX1
*I *668:Y O *C 70.0095 37.0955 *L 0 *D MX2X1

*CAP
1 *480:1 6.54102e-06
2 *480:2 5.45923e-05
3 *480:3 4.80513e-05
4 *480:4 6.99056e-05
5 *480:5 6.99056e-05
6 *480:6 3.77366e-05
7 *480:7 3.89945e-05
8 *480:8 1.25789e-06

*RES
1 *480:8 *668:Y 1.4
2 *480:7 *480:8 0.010714
3 *480:6 *480:7 0.321421
4 *480:5 *480:6 1.4
5 *480:4 *480:5 0.621413
6 *480:3 *480:4 1.4
7 *480:2 *480:3 0.409276
8 *480:1 *480:2 0.0557129
9 *603:D *480:1 1.4
*END

*D_NET *481 0.000343984

*CONN
*I *586:D I *C 11.314 93.357 *L 0.00276 *D SDFFRHQX1
*I *667:Y O *C 10.3485 91.4475 *L 0 *D MX2X1

*CAP
1 *481:1 7.36934e-06
2 *481:2 7.47461e-05
3 *481:3 6.73768e-05
4 *481:4 6.14521e-05
5 *481:5 6.14521e-05
6 *481:6 3.28988e-05
7 *481:7 3.57939e-05
8 *481:8 2.8951e-06

*RES
1 *481:8 *667:Y 1.4
2 *481:7 *481:8 0.0235719
3 *481:6 *481:7 0.267863
4 *481:5 *481:6 1.4
5 *481:4 *481:5 0.497132
6 *481:3 *481:4 1.4
7 *481:2 *481:3 0.548583
8 *481:1 *481:2 0.0600013
9 *586:D *481:1 1.4
*END

*D_NET *482 0.000382141

*CONN
*I *585:D I *C 20.11 96.151 *L 0.00276 *D SDFFRHQX1
*I *666:Y O *C 17.8575 94.9255 *L 0 *D MX2X1

*CAP
1 *482:1 2.36872e-06
2 *482:2 3.36884e-05
3 *482:3 3.13197e-05
4 *482:4 0.000122904
5 *482:5 0.000122904
6 *482:6 3.3162e-05
7 *482:7 3.4478e-05
8 *482:8 1.31595e-06

*RES
1 *482:8 *666:Y 1.4
2 *482:7 *482:8 0.0107145
3 *482:6 *482:7 0.270006
4 *482:5 *482:6 1.4
5 *482:4 *482:5 0.994265
6 *482:3 *482:4 1.4
7 *482:2 *482:3 0.255005
8 *482:1 *482:2 0.0192861
9 *585:D *482:1 1.4
*END

*D_NET *483 0.00050026

*CONN
*I *584:D I *C 39.077 95.2195 *L 0.00276 *D SDFFRHQX1
*I *665:Y O *C 36.0205 93.909 *L 0 *D MX2X1

*CAP
1 *483:1 3.61679e-06
2 *483:2 7.62108e-05
3 *483:3 7.25941e-05
4 *483:4 0.000164619
5 *483:5 0.000164619
6 *483:6 4.9085e-06
7 *483:7 9.30031e-06
8 *483:8 4.39181e-06

*RES
1 *483:8 *665:Y 1.4
2 *483:7 *483:8 0.0364295
3 *483:6 *483:7 0.0407153
4 *483:5 *483:6 1.4
5 *483:4 *483:5 1.24289
6 *483:3 *483:4 1.4
7 *483:2 *483:3 0.602158
8 *483:1 *483:2 0.0300007
9 *584:D *483:1 1.4
*END

*D_NET *484 0.000537978

*CONN
*I *583:D I *C 47.103 94.5035 *L 0.00276 *D SDFFRHQX1
*I *664:Y O *C 44.316 92.716 *L 0 *D MX2X1

*CAP
1 *484:1 1.03337e-06
2 *484:2 9.66199e-05
3 *484:3 9.55865e-05
4 *484:4 0.000164619
5 *484:5 0.000164619
6 *484:6 3.1001e-06
7 *484:7 7.75026e-06
8 *484:8 4.65015e-06

*RES
1 *484:8 *664:Y 1.4
2 *484:7 *484:8 0.0385724
3 *484:6 *484:7 0.0257149
4 *484:5 *484:6 1.4
5 *484:4 *484:5 1.24289
6 *484:3 *484:4 1.4
7 *484:2 *484:3 0.792877
8 *484:1 *484:2 0.00857164
9 *583:D *484:1 1.4
*END

*D_NET *485 0.000667638

*CONN
*I *582:D I *C 57.403 94.7915 *L 0.00276 *D SDFFRHQX1
*I *663:Y O *C 53.917 92.9255 *L 0 *D MX2X1

*CAP
1 *485:1 6.72715e-06
2 *485:2 0.000117208
3 *485:3 0.00011048
4 *485:4 0.00019643
5 *485:5 0.00019643
6 *485:6 1.39718e-05
7 *485:7 2.01814e-05
8 *485:8 6.20967e-06

*RES
1 *485:8 *663:Y 1.4
2 *485:7 *485:8 0.0514277
3 *485:6 *485:7 0.115712
4 *485:5 *485:6 1.4
5 *485:4 *485:5 1.4914
6 *485:3 *485:4 1.4
7 *485:2 *485:3 0.914984
8 *485:1 *485:2 0.0557133
9 *582:D *485:1 1.4
*END

*D_NET *486 0.000535408

*CONN
*I *581:D I *C 67.998 94.867 *L 0.00276 *D SDFFRHQX1
*I *662:Y O *C 65.1945 92.9495 *L 0 *D MX2X1

*CAP
1 *486:1 2.58736e-07
2 *486:2 9.57325e-06
3 *486:3 9.31451e-06
4 *486:4 0.000163692
5 *486:5 0.000163692
6 *486:6 8.97815e-05
7 *486:7 9.44388e-05
8 *486:8 4.65726e-06

*RES
1 *486:8 *662:Y 1.4
2 *486:7 *486:8 0.0385708
3 *486:6 *486:7 0.743559
4 *486:5 *486:6 1.4
5 *486:4 *486:5 1.24283
6 *486:3 *486:4 1.4
7 *486:2 *486:3 0.0771415
8 *486:1 *486:2 0.00214282
9 *581:D *486:1 1.4
*END

*D_NET *487 0.000516779

*CONN
*I *580:D I *C 75.061 95.3795 *L 0.00276 *D SDFFRHQX1
*I *661:Y O *C 72.0595 93.652 *L 0 *D MX2X1

*CAP
1 *487:1 4.91599e-06
2 *487:2 1.08669e-05
3 *487:3 5.95094e-06
4 *487:4 0.000163692
5 *487:5 0.000163692
6 *487:6 8.35719e-05
7 *487:7 8.38306e-05
8 *487:8 2.58736e-07

*RES
1 *487:8 *661:Y 1.4
2 *487:7 *487:8 0.00214282
3 *487:6 *487:7 0.692131
4 *487:5 *487:6 1.4
5 *487:4 *487:5 1.24283
6 *487:3 *487:4 1.4
7 *487:2 *487:3 0.0492849
8 *487:1 *487:2 0.0407136
9 *580:D *487:1 1.4
*END

*D_NET *488 0.000644179

*CONN
*I *579:D I *C 93.896 96.0055 *L 0.00276 *D SDFFRHQX1
*I *660:Y O *C 89.605 94.712 *L 0 *D MX2X1

*CAP
1 *488:1 4.25462e-06
2 *488:2 4.36098e-05
3 *488:3 3.93552e-05
4 *488:4 0.000241518
5 *488:5 0.000241518
6 *488:6 2.95164e-05
7 *488:7 3.6962e-05
8 *488:8 7.44558e-06

*RES
1 *488:8 *660:Y 1.4
2 *488:7 *488:8 0.0600015
3 *488:6 *488:7 0.237863
4 *488:5 *488:6 1.4
5 *488:4 *488:5 1.86425
6 *488:3 *488:4 1.4
7 *488:2 *488:3 0.317151
8 *488:1 *488:2 0.0342866
9 *579:D *488:1 1.4
*END

*D_NET *489 0.000442271

*CONN
*I *578:D I *C 104.105 93.6565 *L 0.00276 *D SDFFRHQX1
*I *659:Y O *C 100.628 93.7365 *L 0 *D MX2X1

*CAP
1 *489:1 7.44558e-06
2 *489:2 1.59548e-05
3 *489:3 8.50924e-06
4 *489:4 0.000193214
5 *489:5 0.000193214
6 *489:6 4.25462e-06
7 *489:7 1.19661e-05
8 *489:8 7.7115e-06

*RES
1 *489:8 *659:Y 1.4
2 *489:7 *489:8 0.0621444
3 *489:6 *489:7 0.0342866
4 *489:5 *489:6 1.4
5 *489:4 *489:5 1.4914
6 *489:3 *489:4 1.4
7 *489:2 *489:3 0.0685731
8 *489:1 *489:2 0.0600015
9 *578:D *489:1 1.4
*END

*D_NET *490 0.000353407

*CONN
*I *577:D I *C 105.705 85.422 *L 0.00276 *D SDFFRHQX1
*I *658:Y O *C 103.329 86.682 *L 0 *D MX2X1

*CAP
1 *490:1 1.14232e-05
2 *490:2 1.14232e-05
3 *490:3 0.00010997
4 *490:4 0.00010997
5 *490:5 5.2385e-05
6 *490:6 5.531e-05
7 *490:7 2.92505e-06

*RES
1 *490:7 *658:Y 1.4
2 *490:6 *490:7 0.023572
3 *490:5 *490:6 0.422153
4 *490:4 *490:5 1.4
5 *490:3 *490:4 0.994276
6 *490:2 *490:3 1.4
7 *490:1 *490:2 0.117854
8 *577:D *490:1 1.4
*END

*D_NET *491 0.000574074

*CONN
*I *576:D I *C 104.838 65.2435 *L 0.00276 *D SDFFRHQX1
*I *657:Y O *C 101.71 67.344 *L 0 *D MX2X1

*CAP
1 *491:1 2.23406e-07
2 *491:2 6.47877e-06
3 *491:3 6.25537e-06
4 *491:4 0.000159406
5 *491:5 0.000159406
6 *491:6 0.000117736
7 *491:7 0.000121152
8 *491:8 3.41644e-06

*RES
1 *491:8 *657:Y 1.4
2 *491:7 *491:8 0.0278575
3 *491:6 *491:7 0.960012
4 *491:5 *491:6 1.4
5 *491:4 *491:5 1.36712
6 *491:3 *491:4 1.4
7 *491:2 *491:3 0.0599992
8 *491:1 *491:2 0.00214283
9 *576:D *491:1 1.4
*END

*D_NET *492 0.00063436

*CONN
*I *575:D I *C 103.779 56.6325 *L 0.00276 *D SDFFRHQX1
*I *656:Y O *C 100.09 58.9465 *L 0 *D MX2X1

*CAP
1 *492:1 5.51886e-06
2 *492:2 2.39151e-05
3 *492:3 1.83962e-05
4 *492:4 0.000162588
5 *492:5 0.000162588
6 *492:6 0.000106698
7 *492:7 0.000106698
8 *492:8 1.47807e-05
9 *492:9 1.47807e-05
10 *492:10 3.67924e-06
11 *492:11 9.1981e-06
12 *492:12 5.51886e-06

*RES
1 *492:12 *656:Y 1.4
2 *492:11 *492:12 0.0450006
3 *492:10 *492:11 0.0300004
4 *492:9 *492:10 1.4
5 *492:8 *492:9 0.124283
6 *492:7 *492:8 1.4
7 *492:6 *492:7 0.870011
8 *492:5 *492:6 1.4
9 *492:4 *492:5 1.36712
10 *492:3 *492:4 1.4
11 *492:2 *492:3 0.150002
12 *492:1 *492:2 0.0450006
13 *575:D *492:1 1.4
*END

*D_NET *493 0.000655416

*CONN
*I *574:D I *C 104.413 41.6055 *L 0.00276 *D SDFFRHQX1
*I *655:Y O *C 100.965 44.4275 *L 0 *D MX2X1

*CAP
1 *493:1 5.75088e-06
2 *493:2 0.000134482
3 *493:3 0.000128731
4 *493:4 0.000183616
5 *493:5 0.000183616
6 *493:6 4.41532e-06
7 *493:7 9.60982e-06
8 *493:8 5.1945e-06

*RES
1 *493:8 *655:Y 1.4
2 *493:7 *493:8 0.0428561
3 *493:6 *493:7 0.0364277
4 *493:5 *493:6 1.4
5 *493:4 *493:5 1.49145
6 *493:3 *493:4 1.4
7 *493:2 *493:3 1.24713
8 *493:1 *493:2 0.0557137
9 *574:D *493:1 1.4
*END

*D_NET *494 0.000511414

*CONN
*I *573:D I *C 104.327 33.058 *L 0.00276 *D SDFFRHQX1
*I *654:Y O *C 101.169 34.2605 *L 0 *D MX2X1

*CAP
1 *494:1 3.63615e-06
2 *494:2 1.11682e-05
3 *494:3 7.53202e-06
4 *494:4 0.000169219
5 *494:5 0.000169219
6 *494:6 6.9866e-05
7 *494:7 7.53202e-05
8 *494:8 5.45422e-06

*RES
1 *494:8 *654:Y 1.4
2 *494:7 *494:8 0.0449989
3 *494:6 *494:7 0.576414
4 *494:5 *494:6 1.4
5 *494:4 *494:5 1.36717
6 *494:3 *494:4 1.4
7 *494:2 *494:3 0.0621413
8 *494:1 *494:2 0.0299993
9 *573:D *494:1 1.4
*END

*D_NET *495 0.000295072

*CONN
*I *572:D I *C 74.701 35.6345 *L 0.00276 *D SDFFRHQX1
*I *653:Y O *C 76.3275 34.482 *L 0 *D MX2X1

*CAP
1 *495:1 1.25789e-06
2 *495:2 3.59756e-05
3 *495:3 3.47177e-05
4 *495:4 8.38867e-05
5 *495:5 8.38867e-05
6 *495:6 2.33967e-05
7 *495:7 2.76735e-05
8 *495:8 4.27682e-06

*RES
1 *495:8 *653:Y 1.4
2 *495:7 *495:8 0.0364277
3 *495:6 *495:7 0.199281
4 *495:5 *495:6 1.4
5 *495:4 *495:5 0.745696
6 *495:3 *495:4 1.4
7 *495:2 *495:3 0.295707
8 *495:1 *495:2 0.010714
9 *572:D *495:1 1.4
*END

*D_NET *496 0.000434852

*CONN
*I *587:D I *C 9.715 83.8605 *L 0.00276 *D SDFFRHQX1
*I *652:Y O *C 9.863 81.173 *L 0 *D MX2X1

*CAP
1 *496:1 5.00062e-06
2 *496:2 5.00062e-06
3 *496:3 3.07261e-05
4 *496:4 3.07261e-05
5 *496:5 0.000152651
6 *496:6 0.000152651
7 *496:7 1.5363e-05
8 *496:8 1.5363e-05
9 *496:9 6.31658e-06
10 *496:10 1.36859e-05
11 *496:11 7.36934e-06

*RES
1 *496:11 *652:Y 1.4
2 *496:10 *496:11 0.0600013
3 *496:9 *496:10 0.0514297
4 *496:8 *496:9 1.4
5 *496:7 *496:8 0.124283
6 *496:6 *496:7 1.4
7 *496:5 *496:6 1.24288
8 *496:4 *496:5 1.4
9 *496:3 *496:4 0.248566
10 *496:2 *496:3 1.4
11 *496:1 *496:2 0.0407151
12 *587:D *496:1 1.4
*END

*D_NET *497 0.000349261

*CONN
*I *649:A0 I *C 99.082 13.308 *L 0.00164 *D OAI21XL
*I *646:B0 I *C 99.0835 12.037 *L 0.0028 *D OAI211X1
*I *650:B I *C 99.7005 13.344 *L 0.00167 *D NAND2XL
*I *684:Y O *C 99.644 11.649 *L 0 *D NAND2XL

*CAP
1 *497:1 2.08535e-06
2 *497:2 2.08535e-06
3 *497:4 1.87681e-05
4 *497:5 1.87681e-05
5 *497:6 2.7266e-05
6 *497:7 2.7266e-05
7 *497:8 4.03168e-05
8 *497:9 7.85482e-05
9 *497:10 4.26338e-05
10 *497:11 2.43291e-05
11 *497:12 5.95483e-05
12 *497:13 2.31706e-06
13 *497:14 3.93899e-06
14 *497:15 1.39023e-06

*RES
1 *497:15 *684:Y 1.4
2 *497:14 *650:B 1.4
3 *497:13 *646:B0 1.4
4 *497:12 *497:15 0.0128569
5 *497:11 *497:14 0.036428
6 *497:10 *497:13 0.0214282
7 *497:9 *497:12 0.537849
8 *497:9 *497:11 0.188568
9 *497:8 *497:10 0.372851
10 *497:7 *497:9 1.4
11 *497:6 *497:8 1.4
12 *497:6 *497:7 0.248565
13 *497:5 *497:6 1.4
14 *497:4 *497:5 0.173569
15 *497:3 *497:4 1.4
16 *497:2 *497:3 1.4
17 *497:1 *497:2 0.0192854
18 *649:A0 *497:1 1.4
*END

*D_NET *498 0.000169648

*CONN
*I *648:A1 I *C 72.1835 12.229 *L 0.00278 *D OAI211X1
*I *651:Y O *C 72.638 11.3705 *L 0 *D AOI21X1

*CAP
1 *498:1 5.84342e-06
2 *498:2 1.04695e-05
3 *498:3 4.62604e-06
4 *498:4 2.76072e-05
5 *498:5 2.76072e-05
6 *498:6 4.65039e-05
7 *498:7 4.67473e-05
8 *498:8 2.43476e-07

*RES
1 *498:8 *651:Y 1.4
2 *498:7 *498:8 0.0021428
3 *498:6 *498:7 0.409276
4 *498:5 *498:6 1.4
5 *498:4 *498:5 0.248567
6 *498:3 *498:4 1.4
7 *498:2 *498:3 0.0407133
8 *498:1 *498:2 0.0514273
9 *648:A1 *498:1 1.4
*END

*D_NET *499 8.98265e-05

*CONN
*I *649:B0 I *C 99.952 13.308 *L 0.00169 *D OAI21XL
*I *650:Y O *C 99.7005 12.764 *L 0 *D NAND2XL

*CAP
1 *499:1 2.08535e-06
2 *499:2 7.41458e-06
3 *499:3 5.32923e-06
4 *499:4 1.3633e-05
5 *499:5 1.3633e-05
6 *499:6 1.99267e-05
7 *499:7 1.99267e-05
8 *499:9 3.93899e-06
9 *499:10 3.93899e-06

*RES
1 *499:10 *650:Y 1.4
2 *499:9 *499:10 0.036428
3 *499:8 *499:9 1.4
4 *499:7 *499:8 1.4
5 *499:6 *499:7 0.184283
6 *499:5 *499:6 1.4
7 *499:4 *499:5 0.124283
8 *499:3 *499:4 1.4
9 *499:2 *499:3 0.0492849
10 *499:1 *499:2 0.0192854
11 *649:B0 *499:1 1.4
*END

*D_NET *500 0.000264619

*CONN
*I *639:A I *C 98.503 13.244 *L 0.0017 *D MX2X1
*I *649:Y O *C 100.242 12.728 *L 0 *D OAI21XL

*CAP
1 *500:1 2.31706e-06
2 *500:2 1.34389e-05
3 *500:3 1.11219e-05
4 *500:4 8.17979e-05
5 *500:5 8.17979e-05
6 *500:6 3.49875e-05
7 *500:7 3.49875e-05
8 *500:9 2.08535e-06
9 *500:10 2.08535e-06

*RES
1 *500:10 *649:Y 1.4
2 *500:9 *500:10 0.0192854
3 *500:8 *500:9 1.4
4 *500:7 *500:8 1.4
5 *500:6 *500:7 0.323566
6 *500:5 *500:6 1.4
7 *500:4 *500:5 0.745696
8 *500:3 *500:4 1.4
9 *500:2 *500:3 0.102856
10 *500:1 *500:2 0.0214282
11 *639:A *500:1 1.4
*END

*D_NET *501 0.00135899

*CONN
*I *1008:C I *C 93.327 11.432 *L 0.0017 *D AND3XL
*I *640:A2 I *C 94.1735 10.8175 *L 0.00279 *D AOI32X1
*I *647:Y O *C 96.382 11.014 *L 0 *D CLKINVX1
*I *642:B I *C 96.6325 11.654 *L 0.00164 *D MXI2XL
*I *645:C0 I *C 98.6275 10.8385 *L 0.00287 *D OAI211X1
*I *646:C0 I *C 99.3735 11.457 *L 0.00287 *D OAI211X1

*CAP
1 *501:1 4.1707e-06
2 *501:2 7.25238e-05
3 *501:3 6.83531e-05
4 *501:4 4.08989e-05
5 *501:5 4.08989e-05
6 *501:6 9.40724e-05
7 *501:7 9.66212e-05
8 *501:8 0.000109064
9 *501:9 5.79264e-06
10 *501:10 0.000109064
11 *501:11 3.24388e-06
12 *501:12 6.48775e-06
13 *501:14 6.928e-05
14 *501:15 6.07068e-05
15 *501:16 2.08535e-06
16 *501:17 1.3633e-05
17 *501:19 0.000109064
18 *501:20 0.000122697
19 *501:21 3.10485e-05
20 *501:22 2.7266e-05
21 *501:23 6.88165e-05
22 *501:24 3.47558e-05
23 *501:25 4.03168e-05
24 *501:26 7.41458e-05
25 *501:27 3.70729e-06
26 *501:28 4.26338e-05
27 *501:29 5.32923e-06
28 *501:31 2.31706e-06

*RES
1 *501:31 *646:C0 1.4
2 *501:29 *645:C0 1.4
3 *501:28 *501:31 0.0214282
4 *501:27 *642:B 1.4
5 *501:26 *501:29 0.0492849
6 *501:25 *501:28 0.372851
7 *501:24 *501:27 0.0342852
8 *501:23 *501:26 0.636418
9 *501:22 *501:25 1.4
10 *501:21 *501:24 0.287138
11 *501:20 *501:23 1.4
12 *501:20 *501:22 0.248565
13 *501:19 *501:21 1.4
14 *501:19 *501:20 0.869979
15 *501:17 *501:19 0.124283
16 *501:16 *647:Y 1.4
17 *501:15 *501:17 1.4
18 *501:14 *501:16 0.0192854
19 *501:14 *501:15 0.56142
20 *501:12 *501:14 0.059999
21 *501:11 *640:A2 1.4
22 *501:10 *501:12 1.4
23 *501:9 *501:11 0.0299995
24 *501:8 *501:10 0.994261
25 *501:7 *501:9 0.0235711
26 *501:7 *501:8 1.4
27 *501:6 *501:7 0.869986
28 *501:5 *501:6 1.4
29 *501:4 *501:5 0.372848
30 *501:3 *501:4 1.4
31 *501:2 *501:3 0.632133
32 *501:1 *501:2 0.0385708
33 *1008:C *501:1 1.4
*END

*D_NET *502 0.00352375

*CONN
*I *637:A1N I *C 99.2635 11.457 *L 0.0017 *D OAI2BB1X1
*I *636:A1N I *C 99.8245 11.927 *L 0.0017 *D OAI2BB1X1
*I *639:S0 I *C 98.213 13.534 *L 0.00371 *D MX2X1
*I *642:A I *C 95.4675 11.314 *L 0.0017 *D MXI2XL
*I *640:B1 I *C 95.0435 11.1075 *L 0.00284 *D AOI32X1
*I *641:S0 I *C 86.3 11.497 *L 0.00371 *D MX2X1
*I *643:B I *C 73.5485 10.7495 *L 0.0028 *D NOR2BX1
*I *648:Y O *C 73.0535 12.809 *L 0 *D OAI211X1
*I *647:A I *C 96.0095 11.014 *L 0.00273 *D CLKINVX1
*I *644:B I *C 72.48 10.5185 *L 0.00171 *D NOR2XL

*CAP
1 *502:1 2.78047e-06
2 *502:2 2.78047e-06
3 *502:3 2.7266e-05
4 *502:4 2.7266e-05
5 *502:5 2.17803e-05
6 *502:6 2.54876e-05
7 *502:8 3.70729e-06
8 *502:9 3.19754e-05
9 *502:11 3.19754e-05
10 *502:12 8.17979e-05
11 *502:13 8.17979e-05
12 *502:14 0.000109828
13 *502:15 4.26338e-05
14 *502:16 6.71946e-05
15 *502:18 0.000122697
16 *502:19 2.31706e-06
17 *502:20 0.000149963
18 *502:21 2.31706e-06
19 *502:22 6.95117e-06
20 *502:23 0.000436255
21 *502:25 6.95117e-06
22 *502:26 2.54876e-06
23 *502:27 0.00101166
24 *502:29 2.54876e-06
25 *502:30 1.52926e-05
26 *502:31 0.000630273
27 *502:32 3.93899e-06
28 *502:34 1.52926e-05
29 *502:35 2.02085e-05
30 *502:36 2.76072e-05
31 *502:37 3.93899e-06
32 *502:38 1.4134e-05
33 *502:40 2.02085e-05
34 *502:41 8.01035e-05
35 *502:43 3.24388e-06
36 *502:44 1.08902e-05
37 *502:45 1.15853e-06
38 *502:47 8.01035e-05
39 *502:49 5.45319e-05
40 *502:50 1.15853e-06
41 *502:51 9.73903e-06
42 *502:53 5.45319e-05
43 *502:55 1.70433e-06
44 *502:56 8.0347e-06
45 *502:57 5.84342e-06
46 *502:58 6.48775e-06
47 *502:60 5.52143e-05
48 *502:61 5.84342e-06
49 *502:62 1.22804e-05
50 *502:63 5.52143e-05
51 *502:65 5.79264e-06
52 *502:66 3.16518e-06
53 *502:68 9.25207e-06
54 *502:69 6.08689e-06

*RES
1 *502:69 *644:B 1.4
2 *502:68 *502:69 0.0535701
3 *502:66 *502:68 0.0278565
4 *502:65 *647:A 1.4
5 *502:63 *502:66 1.4
6 *502:62 *502:65 0.0535706
7 *502:61 *648:Y 1.4
8 *502:60 *502:63 0.497135
9 *502:58 *502:62 0.059999
10 *502:57 *502:61 0.0514273
11 *502:56 *502:60 1.4
12 *502:55 *643:B 1.4
13 *502:53 *502:58 1.4
14 *502:52 *502:57 1.4
15 *502:51 *502:56 0.0707126
16 *502:51 *502:55 0.0149996
17 *502:50 *641:S0 1.4
18 *502:49 *502:53 0.497131
19 *502:47 *502:52 1.4
20 *502:46 *502:51 1.4
21 *502:45 *502:50 0.0107141
22 *502:44 *502:49 1.4
23 *502:43 *640:B1 1.4
24 *502:41 *502:47 0.704983
25 *502:40 *502:46 1.4
26 *502:39 *502:45 1.4
27 *502:38 *502:44 0.100713
28 *502:38 *502:43 0.0299995
29 *502:37 *642:A 1.4
30 *502:36 *502:41 1.4
31 *502:35 *502:40 0.177853
32 *502:34 *502:39 1.4
33 *502:33 *502:38 1.4
34 *502:32 *502:37 0.036428
35 *502:31 *502:36 0.248567
36 *502:31 *502:35 1.4
37 *502:30 *502:34 0.141426
38 *502:29 *502:33 1.4
39 *502:28 *502:32 1.4
40 *502:27 *502:31 5.46846
41 *502:27 *502:30 1.4
42 *502:26 *502:29 0.0235711
43 *502:25 *502:28 1.4
44 *502:23 *502:27 3.72848
45 *502:23 *502:26 1.4
46 *502:22 *502:25 0.0642847
47 *502:21 *639:S0 1.4
48 *502:20 *502:23 0.248565
49 *502:20 *502:22 1.4
50 *502:19 *502:21 0.0214282
51 *502:18 *502:20 1.11854
52 *502:17 *502:19 1.4
53 *502:16 *502:18 1.4
54 *502:15 *502:17 1.4
55 *502:14 *502:16 0.621419
56 *502:14 *502:15 0.394279
57 *502:13 *502:14 1.4
58 *502:12 *502:13 0.745696
59 *502:11 *502:12 1.4
60 *502:9 *502:11 0.29571
61 *502:8 *636:A1N 1.4
62 *502:7 *502:9 1.4
63 *502:6 *502:8 0.0342852
64 *502:6 *502:7 1.4
65 *502:5 *502:6 0.201425
66 *502:4 *502:5 1.4
67 *502:3 *502:4 0.248565
68 *502:2 *502:3 1.4
69 *502:1 *502:2 0.0257139
70 *637:A1N *502:1 1.4
*END

*D_NET *503 0.000325164

*CONN
*I *636:B0 I *C 98.9545 11.927 *L 0.00273 *D OAI2BB1X1
*I *646:Y O *C 99.6635 12.617 *L 0 *D OAI211X1

*CAP
1 *503:1 3.70729e-06
2 *503:2 5.23655e-05
3 *503:3 4.86582e-05
4 *503:4 2.7266e-05
5 *503:5 2.7266e-05
6 *503:6 8.06335e-05
7 *503:7 8.29506e-05
8 *503:8 2.31706e-06

*RES
1 *503:8 *646:Y 1.4
2 *503:7 *503:8 0.0214282
3 *503:6 *503:7 0.745702
4 *503:5 *503:6 1.4
5 *503:4 *503:5 0.248565
6 *503:3 *503:4 1.4
7 *503:2 *503:3 0.449993
8 *503:1 *503:2 0.0342852
9 *636:B0 *503:1 1.4
*END

*D_NET *504 0.000121263

*CONN
*I *637:B0 I *C 98.3935 11.457 *L 0.00273 *D OAI2BB1X1
*I *645:Y O *C 98.9175 11.9985 *L 0 *D OAI211X1

*CAP
1 *504:1 2.78047e-06
2 *504:2 2.78047e-06
3 *504:3 2.7266e-05
4 *504:4 2.7266e-05
5 *504:5 2.52559e-05
6 *504:6 3.05851e-05
7 *504:7 5.32923e-06

*RES
1 *504:7 *645:Y 1.4
2 *504:6 *504:7 0.0492849
3 *504:5 *504:6 0.233568
4 *504:4 *504:5 1.4
5 *504:3 *504:4 0.248565
6 *504:2 *504:3 1.4
7 *504:1 *504:2 0.0257139
8 *637:B0 *504:1 1.4
*END

*D_NET *505 0.00017096

*CONN
*I *532:D I *C 73.3725 10.421 *L 0.00276 *D SDFFRHQX1
*I *644:Y O *C 72.77 10.8085 *L 0 *D NOR2XL

*CAP
1 *505:1 6.81732e-06
2 *505:2 1.29042e-05
3 *505:3 6.08689e-06
4 *505:4 4.14108e-05
5 *505:5 4.14108e-05
6 *505:6 2.5078e-05
7 *505:7 3.11649e-05
8 *505:8 6.08689e-06

*RES
1 *505:8 *644:Y 1.4
2 *505:7 *505:8 0.0535701
3 *505:6 *505:7 0.220709
4 *505:5 *505:6 1.4
5 *505:4 *505:5 0.372851
6 *505:3 *505:4 1.4
7 *505:2 *505:3 0.0535701
8 *505:1 *505:2 0.0599985
9 *532:D *505:1 1.4
*END

*D_NET *506 8.40935e-05

*CONN
*I *531:D I *C 73.455 11.105 *L 0.00276 *D SDFFRHQX1
*I *643:Y O *C 73.2685 10.7495 *L 0 *D NOR2BX1

*CAP
1 *506:1 2.92171e-06
2 *506:2 5.84342e-06
3 *506:3 2.92171e-06
4 *506:4 1.38036e-05
5 *506:5 1.38036e-05
6 *506:6 2.02085e-05
7 *506:7 2.23998e-05
8 *506:8 2.19128e-06

*RES
1 *506:8 *643:Y 1.4
2 *506:7 *506:8 0.0192852
3 *506:6 *506:7 0.177853
4 *506:5 *506:6 1.4
5 *506:4 *506:5 0.124284
6 *506:3 *506:4 1.4
7 *506:2 *506:3 0.0257137
8 *506:1 *506:2 0.0257137
9 *531:D *506:1 1.4
*END

*D_NET *507 0.000296444

*CONN
*I *536:D I *C 98.2285 11.13 *L 0.00276 *D SDFFRHQX1
*I *642:Y O *C 95.7575 10.734 *L 0 *D MXI2XL

*CAP
1 *507:1 3.01217e-06
2 *507:2 2.82681e-05
3 *507:3 2.52559e-05
4 *507:4 0.000109064
5 *507:5 0.000109064
6 *507:6 6.95117e-06
7 *507:7 1.08902e-05
8 *507:8 3.93899e-06

*RES
1 *507:8 *642:Y 1.4
2 *507:7 *507:8 0.036428
3 *507:6 *507:7 0.0642847
4 *507:5 *507:6 1.4
5 *507:4 *507:5 0.994261
6 *507:3 *507:4 1.4
7 *507:2 *507:3 0.233568
8 *507:1 *507:2 0.0278567
9 *536:D *507:1 1.4
*END

*D_NET *508 0.000533572

*CONN
*I *533:D I *C 83.5275 10.8525 *L 0.00276 *D SDFFRHQX1
*I *641:Y O *C 88.33 11.207 *L 0 *D MX2X1

*CAP
1 *508:1 6.25605e-06
2 *508:2 1.87681e-05
3 *508:3 1.25121e-05
4 *508:4 0.000218128
5 *508:5 0.000218128
6 *508:6 2.87315e-05
7 *508:7 2.989e-05
8 *508:8 1.15853e-06

*RES
1 *508:8 *641:Y 1.4
2 *508:7 *508:8 0.0107141
3 *508:6 *508:7 0.26571
4 *508:5 *508:6 1.4
5 *508:4 *508:5 1.98852
6 *508:3 *508:4 1.4
7 *508:2 *508:3 0.115712
8 *508:1 *508:2 0.0578562
9 *533:D *508:1 1.4
*END

*D_NET *509 0.000329109

*CONN
*I *638:A I *C 93.2255 11.2485 *L 0.00273 *D INVX1
*I *640:Y O *C 94.7535 11.3975 *L 0 *D AOI32X1

*CAP
1 *509:1 4.63411e-07
2 *509:2 5.02801e-05
3 *509:3 4.98167e-05
4 *509:4 6.81649e-05
5 *509:5 6.81649e-05
6 *509:6 4.28655e-05
7 *509:7 4.61094e-05
8 *509:8 3.24388e-06

*RES
1 *509:8 *640:Y 1.4
2 *509:7 *509:8 0.0299995
3 *509:6 *509:7 0.396422
4 *509:5 *509:6 1.4
5 *509:4 *509:5 0.621413
6 *509:3 *509:4 1.4
7 *509:2 *509:3 0.460707
8 *509:1 *509:2 0.00428565
9 *638:A *509:1 1.4
*END

*D_NET *510 0.000200205

*CONN
*I *539:D I *C 101.846 12.991 *L 0.00276 *D SDFFRHQX1
*I *639:Y O *C 100.243 13.244 *L 0 *D MX2X1

*CAP
1 *510:1 4.1707e-06
2 *510:2 1.36706e-05
3 *510:3 9.49993e-06
4 *510:4 8.17979e-05
5 *510:5 8.17979e-05
6 *510:6 2.31706e-06
7 *510:7 4.63411e-06
8 *510:8 2.31706e-06

*RES
1 *510:8 *639:Y 1.4
2 *510:7 *510:8 0.0214282
3 *510:6 *510:7 0.0214282
4 *510:5 *510:6 1.4
5 *510:4 *510:5 0.745696
6 *510:3 *510:4 1.4
7 *510:2 *510:3 0.0878557
8 *510:1 *510:2 0.0385708
9 *539:D *510:1 1.4
*END

*D_NET *511 0.000112922

*CONN
*I *535:D I *C 94.099 11.6315 *L 0.00276 *D SDFFRHQX1
*I *638:Y O *C 93.598 11.2485 *L 0 *D INVX1

*CAP
1 *511:1 2.31706e-07
2 *511:2 2.17803e-05
3 *511:3 2.15486e-05
4 *511:4 2.7266e-05
5 *511:5 2.7266e-05
6 *511:6 3.93899e-06
7 *511:7 7.41458e-06
8 *511:8 3.47558e-06

*RES
1 *511:8 *638:Y 1.4
2 *511:7 *511:8 0.0321423
3 *511:6 *511:7 0.036428
4 *511:5 *511:6 1.4
5 *511:4 *511:5 0.248565
6 *511:3 *511:4 1.4
7 *511:2 *511:3 0.199283
8 *511:1 *511:2 0.00214282
9 *535:D *511:1 1.4
*END

*D_NET *512 0.00038002

*CONN
*I *537:D I *C 101.032 11.2685 *L 0.00276 *D SDFFRHQX1
*I *637:Y O *C 97.5235 11.167 *L 0 *D OAI2BB1X1

*CAP
1 *512:1 1.62194e-06
2 *512:2 1.0195e-05
3 *512:3 8.5731e-06
4 *512:4 0.000163596
5 *512:5 0.000163596
6 *512:6 1.34389e-05
7 *512:7 1.62194e-05
8 *512:8 2.78047e-06

*RES
1 *512:8 *637:Y 1.4
2 *512:7 *512:8 0.0257139
3 *512:6 *512:7 0.124284
4 *512:5 *512:6 1.4
5 *512:4 *512:5 1.49139
6 *512:3 *512:4 1.4
7 *512:2 *512:3 0.0792844
8 *512:1 *512:2 0.0149998
9 *537:D *512:1 1.4
*END

*D_NET *513 0.000351752

*CONN
*I *538:D I *C 101.696 11.7185 *L 0.00276 *D SDFFRHQX1
*I *636:Y O *C 98.0845 11.637 *L 0 *D OAI2BB1X1

*CAP
1 *513:1 2.31706e-06
2 *513:2 3.47558e-06
3 *513:3 1.15853e-06
4 *513:4 0.000163596
5 *513:5 0.000163596
6 *513:6 5.09752e-06
7 *513:7 8.80481e-06
8 *513:8 3.70729e-06

*RES
1 *513:8 *636:Y 1.4
2 *513:7 *513:8 0.0342852
3 *513:6 *513:7 0.0471421
4 *513:5 *513:6 1.4
5 *513:4 *513:5 1.49139
6 *513:3 *513:4 1.4
7 *513:2 *513:3 0.0107141
8 *513:1 *513:2 0.0214282
9 *538:D *513:1 1.4
*END

*D_NET *514 0.00029236

*CONN
*I *523:A I *C 70.222 14.7945 *L 0.00157 *D NAND2XL
*I *522:A1 I *C 70.969 13.562 *L 0.00274 *D OAI21X1
*I *527:Y O *C 71.0395 13.726 *L 0 *D NAND2XL

*CAP
1 *514:1 5.11299e-06
2 *514:2 8.30252e-05
3 *514:3 7.79122e-05
4 *514:4 2.76072e-05
5 *514:5 2.76072e-05
6 *514:6 1.77737e-05
7 *514:7 2.89736e-05
8 *514:8 1.46085e-05
9 *514:9 3.16518e-06
10 *514:10 6.57384e-06

*RES
1 *514:10 *527:Y 1.4
2 *514:9 *522:A1 1.4
3 *514:8 *514:10 0.0578557
4 *514:7 *514:9 0.0278565
5 *514:7 *514:8 0.0707126
6 *514:6 *514:7 0.156425
7 *514:5 *514:6 1.4
8 *514:4 *514:5 0.248567
9 *514:3 *514:4 1.4
10 *514:2 *514:3 0.685697
11 *514:1 *514:2 0.0449989
12 *523:A *514:1 1.4
*END

*D_NET *515 0.000748564

*CONN
*I *755:AN I *C 71.9155 13.002 *L 0.00178 *D NAND2BX1
*I *524:Y O *C 73.321 13.286 *L 0 *D NAND3BX1
*I *958:B2 I *C 70.8765 14.672 *L 0.00279 *D OAI33X1
*I *971:B I *C 71.013 13.972 *L 0.0028 *D NOR2X1
*I *967:C I *C 71.008 15.4305 *L 0.00278 *D NOR3X1

*CAP
1 *515:1 6.81732e-06
2 *515:2 1.14434e-05
3 *515:3 4.62604e-06
4 *515:4 1.38036e-05
5 *515:5 1.38036e-05
6 *515:6 8.47295e-05
7 *515:7 8.47295e-05
8 *515:8 0.000110429
9 *515:9 8.28215e-05
10 *515:10 2.76072e-05
11 *515:11 6.62254e-05
12 *515:12 3.40866e-05
13 *515:13 7.08514e-05
14 *515:14 3.96865e-05
15 *515:15 3.82257e-05
16 *515:16 4.62604e-06
17 *515:17 4.21213e-05
18 *515:18 1.46085e-06
19 *515:19 5.35646e-06
20 *515:21 5.11299e-06

*RES
1 *515:21 *967:C 1.4
2 *515:19 *971:B 1.4
3 *515:18 *958:B2 1.4
4 *515:17 *515:21 0.0449989
5 *515:16 *524:Y 1.4
6 *515:15 *515:19 0.0471417
7 *515:14 *515:18 0.0128568
8 *515:14 *515:17 0.325706
9 *515:13 *515:16 0.0407133
10 *515:12 *515:15 0.289279
11 *515:12 *515:14 0.010714
12 *515:11 *515:13 0.582843
13 *515:10 *515:12 1.4
14 *515:9 *515:11 1.4
15 *515:8 *515:10 0.248567
16 *515:8 *515:9 0.745702
17 *515:7 *515:8 1.4
18 *515:6 *515:7 0.745696
19 *515:5 *515:6 1.4
20 *515:4 *515:5 0.124284
21 *515:3 *515:4 1.4
22 *515:2 *515:3 0.0407133
23 *515:1 *515:2 0.0599985
24 *755:AN *515:1 1.4
*END

*D_NET *516 0.000517262

*CONN
*I *968:C I *C 74.4105 12.527 *L 0.00278 *D NOR3X1
*I *720:C I *C 72.4225 12.0075 *L 0.00289 *D NAND3BX1
*I *651:B0 I *C 72.058 11.6605 *L 0.00277 *D AOI21X1
*I *522:Y O *C 71.839 12.982 *L 0 *D OAI21X1

*CAP
1 *516:1 1.21738e-06
2 *516:2 1.97215e-05
3 *516:3 1.85041e-05
4 *516:4 9.66251e-05
5 *516:5 0.000110429
6 *516:6 4.35821e-05
7 *516:7 2.76072e-05
8 *516:8 4.69908e-05
9 *516:9 6.06254e-05
10 *516:10 1.38036e-05
11 *516:11 3.40866e-06
12 *516:12 6.08689e-05
13 *516:13 3.65213e-06
14 *516:15 2.43476e-07
15 *516:16 6.81732e-06
16 *516:18 3.16518e-06

*RES
1 *516:18 *522:Y 1.4
2 *516:16 *516:18 0.0278565
3 *516:15 *651:B0 1.4
4 *516:13 *516:16 0.0321421
5 *516:12 *516:15 0.0021428
6 *516:11 *720:C 1.4
7 *516:10 *516:13 1.4
8 *516:9 *516:12 0.533558
9 *516:8 *516:11 0.0299993
10 *516:7 *516:10 0.124284
11 *516:7 *516:9 1.4
12 *516:6 *516:8 0.383562
13 *516:5 *516:7 0.124284
14 *516:5 *516:6 1.4
15 *516:4 *516:5 0.869986
16 *516:3 *516:4 1.4
17 *516:2 *516:3 0.162853
18 *516:1 *516:2 0.010714
19 *968:C *516:1 1.4
*END

*D_NET *517 0.0441095

*CONN
*I *729:S0 I *C 23.1715 12.0385 *L 0.00371 *D MX2X1
*I *728:S0 I *C 14.6105 13.416 *L 0.00371 *D MX2X1
*I *742:S0 I *C 14.302 24.121 *L 0.00371 *D MX2X1
*I *726:S0 I *C 16.579 35.7005 *L 0.00371 *D MX2X1
*I *741:S0 I *C 17.0705 63.401 *L 0.00371 *D MX2X1
*I *743:S0 I *C 17.8445 42.761 *L 0.00371 *D MX2X1
*I *724:S0 I *C 18.186 56.0515 *L 0.00371 *D MX2X1
*I *723:S0 I *C 13.222 76.202 *L 0.00371 *D MX2X1
*I *744:S0 I *C 12.8065 88.1645 *L 0.00371 *D MX2X1
*I *722:S0 I *C 21.0755 90.136 *L 0.00371 *D MX2X1
*I *721:S0 I *C 35.5935 86.783 *L 0.00371 *D MX2X1
*I *725:S0 I *C 42.4775 84.27 *L 0.00371 *D MX2X1
*I *727:S0 I *C 52.684 84.3275 *L 0.00371 *D MX2X1
*I *753:S0 I *C 63.932 82.9925 *L 0.00371 *D MX2X1
*I *752:S0 I *C 69.814 84.9255 *L 0.00371 *D MX2X1
*I *751:S0 I *C 82.783 89.334 *L 0.00371 *D MX2X1
*I *737:S0 I *C 45.691 62.3695 *L 0.00371 *D MX2X1
*I *738:S0 I *C 66.278 61.773 *L 0.00371 *D MX2X1
*I *740:S0 I *C 67.591 39.053 *L 0.00371 *D MX2X1
*I *750:S0 I *C 94.9105 89.536 *L 0.00371 *D MX2X1
*I *719:S0 I *C 42.6405 42.796 *L 0.00371 *D MX2X1
*I *739:S0 I *C 68.3845 57.33 *L 0.00371 *D MX2X1
*I *749:S0 I *C 96.407 80.8605 *L 0.00371 *D MX2X1
*I *745:S0 I *C 41.7145 59.147 *L 0.00371 *D MX2X1
*I *525:Y O *C 70.613 18.67 *L 0 *D OR2X1
*I *732:S0 I *C 45.2125 35.946 *L 0.00371 *D MX2X1
*I *748:S0 I *C 92.1585 65.979 *L 0.00371 *D MX2X1
*I *522:B0 I *C 71.549 13.272 *L 0.0028 *D OAI21X1
*I *747:S0 I *C 90.994 59.1045 *L 0.00371 *D MX2X1
*I *731:S0 I *C 47.2365 20.782 *L 0.00371 *D MX2X1
*I *733:S0 I *C 93.383 44.071 *L 0.00371 *D MX2X1
*I *730:S0 I *C 44.6235 12.824 *L 0.00371 *D MX2X1
*I *746:S0 I *C 94.3405 32.959 *L 0.00371 *D MX2X1
*I *736:S0 I *C 93.61 26.623 *L 0.00371 *D MX2X1

*CAP
1 *517:1 5.85079e-06
2 *517:2 7.93672e-05
3 *517:3 7.35164e-05
4 *517:4 0.000454072
5 *517:5 0.00046973
6 *517:6 3.56135e-06
7 *517:7 1.56577e-05
8 *517:8 5.34202e-06
9 *517:9 0.00054107
10 *517:10 1.78067e-06
11 *517:11 0.00054107
12 *517:14 1.27191e-05
13 *517:15 2.7982e-06
14 *517:16 9.9209e-06
15 *517:18 0.000140919
16 *517:19 0.000140919
17 *517:20 0.000615319
18 *517:21 0.000976869
19 *517:22 0.00106074
20 *517:23 1.481e-05
21 *517:24 0.00108919
22 *517:25 4.44301e-05
23 *517:26 1.481e-05
24 *517:27 0.00108675
25 *517:28 6.221e-05
26 *517:29 4.44301e-05
27 *517:30 5.97388e-06
28 *517:31 0.000696753
29 *517:33 6.221e-05
30 *517:34 7.79202e-07
31 *517:35 1.09088e-05
32 *517:36 0.000202183
33 *517:37 5.62113e-06
34 *517:38 3.47975e-06
35 *517:39 1.29867e-06
36 *517:40 4.93495e-06
37 *517:41 0.000202183
38 *517:42 5.62113e-06
39 *517:43 6.69182e-06
40 *517:44 5.19468e-07
41 *517:46 0.000608537
42 *517:48 3.21208e-06
43 *517:50 0.000642822
44 *517:51 1.28483e-05
45 *517:53 4.57952e-05
46 *517:54 1.5363e-05
47 *517:55 1.33836e-06
48 *517:56 0.000414802
49 *517:57 1.5363e-05
50 *517:59 0.000414802
51 *517:60 2.31608e-05
52 *517:61 9.63278e-05
53 *517:62 2.84246e-05
54 *517:63 8.36946e-05
55 *517:64 1.52651e-05
56 *517:65 5.26381e-06
57 *517:66 2.63191e-06
58 *517:67 0.000803865
59 *517:70 0.000803865
60 *517:71 7.85359e-05
61 *517:72 0.00021339
62 *517:73 3.61679e-06
63 *517:74 0.000131238
64 *517:76 0.000395085
65 *517:77 0.000971112
66 *517:78 0.00121442
67 *517:79 1.29171e-06
68 *517:80 0.000638398
69 *517:81 4.39852e-06
70 *517:82 1.55005e-06
71 *517:83 9.46975e-05
72 *517:84 6.98588e-06
73 *517:85 2.58342e-07
74 *517:86 3.00134e-05
75 *517:87 0.00105859
76 *517:88 2.58736e-06
77 *517:90 0.000327383
78 *517:92 0.00100768
79 *517:94 0.00105984
80 *517:95 7.76209e-07
81 *517:96 0.000906797
82 *517:97 1.37789e-05
83 *517:98 0.000732459
84 *517:99 5.17473e-06
85 *517:100 7.76209e-07
86 *517:101 0.000906797
87 *517:102 0.000102043
88 *517:103 0.000239854
89 *517:104 8.79704e-06
90 *517:106 6.02581e-06
91 *517:107 0.000102043
92 *517:108 0.0002473
93 *517:109 3.62231e-06
94 *517:110 0.000181738
95 *517:111 1.37789e-05
96 *517:112 6.91376e-06
97 *517:113 5.31827e-07
98 *517:116 0.000175713
99 *517:117 0.000303136
100 *517:118 0.00067625
101 *517:120 7.23097e-07
102 *517:121 0.000140624
103 *517:122 1.45776e-05
104 *517:123 0.000289357
105 *517:124 0.00067625
106 *517:125 7.23097e-07
107 *517:126 0.000140624
108 *517:127 1.45776e-05
109 *517:128 8.74657e-05
110 *517:129 0.000466413
111 *517:131 0.000843368
112 *517:132 6.65189e-06
113 *517:133 0.000116621
114 *517:134 3.72279e-06
115 *517:135 0.000586074
116 *517:136 5.59195e-05
117 *517:137 0.00113842
118 *517:138 7.36459e-06
119 *517:139 2.91552e-05
120 *517:140 0.000833634
121 *517:142 8.0506e-05
122 *517:143 0.000123384
123 *517:144 5.62495e-05
124 *517:146 0.000350967
125 *517:147 7.12702e-07
126 *517:148 7.15078e-05
127 *517:149 0.00185186
128 *517:150 3.45688e-06
129 *517:151 8.0506e-05
130 *517:152 0.000161012
131 *517:153 5.62495e-05
132 *517:154 6.78805e-06
133 *517:155 8.27623e-05
134 *517:157 7.5784e-05
135 *517:158 6.28944e-06
136 *517:159 0.00101194
137 *517:160 3.45688e-06
138 *517:161 5.05236e-06
139 *517:162 0.000161012
140 *517:163 3.56728e-05
141 *517:164 6.78805e-06
142 *517:165 0.00011035
143 *517:166 4.27621e-06
144 *517:168 0.000138036
145 *517:170 6.11601e-06
146 *517:171 0.000655258
147 *517:172 4.04934e-05
148 *517:174 2.75874e-05
149 *517:175 0.000771632
150 *517:177 0.000179447
151 *517:178 1.06365e-06
152 *517:179 0.00103658
153 *517:180 4.82065e-06
154 *517:181 6.53664e-06
155 *517:182 0.000771632
156 *517:183 4.14108e-05
157 *517:184 1.70433e-06
158 *517:187 0.000381327
159 *517:189 1.25705e-05
160 *517:190 1.62912e-05
161 *517:191 0.000264658
162 *517:192 1.70433e-06
163 *517:193 4.46765e-06
164 *517:194 0.000133026
165 *517:195 6.03382e-06
166 *517:196 0.000146621
167 *517:197 0.000267823
168 *517:199 4.46765e-06
169 *517:200 7.39036e-05
170 *517:201 5.91229e-05
171 *517:203 0.000130329
172 *517:204 0.000413236
173 *517:205 3.16518e-06
174 *517:207 0.000765271
175 *517:208 1.9973e-05
176 *517:209 2.37492e-06
177 *517:210 0.000413236
178 *517:212 0.00134472
179 *517:213 2.41779e-05
180 *517:214 8.18029e-06
181 *517:215 1.62912e-05
182 *517:217 0.00059451
183 *517:218 4.20485e-06
184 *517:219 5.80536e-06
185 *517:220 1.62912e-05
186 *517:221 7.2723e-06
187 *517:222 4.61505e-05
188 *517:223 1.5064e-05
189 *517:226 4.22208e-06
190 *517:227 7.2723e-06
191 *517:228 4.61505e-05
192 *517:229 1.53835e-05
193 *517:230 1.00274e-05
194 *517:232 2.33752e-06
195 *517:233 1.53835e-05
196 *517:234 5.80536e-06
197 *517:235 5.1945e-06
198 *517:236 0.000316345
199 *517:238 2.85697e-06
200 *517:239 0.000316345
201 *517:241 1.53835e-05
202 *517:242 1.53835e-05
203 *517:243 4.67505e-06
204 *517:244 9.09037e-06
205 *517:245 4.41532e-06

*RES
1 *517:245 *736:S0 1.4
2 *517:244 *517:245 0.0364277
3 *517:243 *517:244 0.0385705
4 *517:242 *517:243 1.4
5 *517:241 *517:242 0.124288
6 *517:239 *517:241 1.4
7 *517:238 *746:S0 1.4
8 *517:236 *517:239 2.60994
9 *517:235 *517:238 0.0235709
10 *517:234 *730:S0 1.4
11 *517:233 *517:236 1.4
12 *517:232 *517:235 0.0192852
13 *517:230 *517:234 0.047142
14 *517:229 *517:233 0.124288
15 *517:228 *517:232 1.4
16 *517:227 *733:S0 1.4
17 *517:226 *517:230 0.0342851
18 *517:223 *517:229 1.4
19 *517:222 *517:228 0.372863
20 *517:221 *517:227 0.0599985
21 *517:220 *517:226 1.4
22 *517:219 *731:S0 1.4
23 *517:218 *747:S0 1.4
24 *517:217 *517:223 0.124283
25 *517:217 *517:222 1.4
26 *517:216 *517:221 1.4
27 *517:215 *517:220 0.124283
28 *517:214 *517:219 0.047142
29 *517:213 *517:218 0.0342862
30 *517:212 *517:217 4.7806
31 *517:212 *517:216 1.4
32 *517:210 *517:215 1.4
33 *517:209 *517:214 0.0192854
34 *517:208 *517:213 0.162859
35 *517:207 *517:212 6.28067
36 *517:205 *522:B0 1.4
37 *517:204 *517:210 3.35565
38 *517:203 *517:209 1.4
39 *517:201 *517:208 1.4
40 *517:200 *517:207 1.4
41 *517:199 *748:S0 1.4
42 *517:197 *517:205 0.0278565
43 *517:196 *517:204 1.4
44 *517:196 *517:203 0.994261
45 *517:195 *732:S0 1.4
46 *517:194 *517:201 0.497133
47 *517:194 *517:200 0.621416
48 *517:193 *517:199 0.036429
49 *517:192 *525:Y 1.4
50 *517:191 *517:197 2.32923
51 *517:190 *517:196 0.124283
52 *517:189 *517:195 0.0514298
53 *517:187 *517:194 1.4
54 *517:186 *517:193 1.4
55 *517:184 *517:192 0.0149996
56 *517:183 *517:191 1.4
57 *517:182 *517:190 1.4
58 *517:181 *517:189 0.0557156
59 *517:180 *745:S0 1.4
60 *517:179 *517:187 3.10933
61 *517:179 *517:186 1.4
62 *517:178 *749:S0 1.4
63 *517:177 *517:184 1.4
64 *517:177 *517:183 0.372851
65 *517:175 *517:182 6.46292
66 *517:174 *517:181 1.4
67 *517:172 *517:180 0.0428561
68 *517:171 *517:179 5.34221
69 *517:170 *517:178 0.00857164
70 *517:168 *517:177 1.24284
71 *517:166 *739:S0 1.4
72 *517:165 *517:175 1.4
73 *517:165 *517:174 0.248565
74 *517:164 *719:S0 1.4
75 *517:163 *517:172 0.317135
76 *517:162 *517:171 1.4
77 *517:161 *517:170 0.0407153
78 *517:160 *750:S0 1.4
79 *517:159 *517:168 1.4
80 *517:158 *740:S0 1.4
81 *517:157 *517:166 0.0385713
82 *517:155 *517:165 0.745696
83 *517:154 *517:164 0.0578586
84 *517:153 *517:163 1.4
85 *517:152 *517:162 1.24283
86 *517:151 *517:161 1.4
87 *517:150 *517:160 0.0278578
88 *517:149 *517:159 8.72122
89 *517:149 *517:158 0.0535701
90 *517:148 *517:157 0.644997
91 *517:147 *738:S0 1.4
92 *517:146 *517:155 1.4
93 *517:145 *517:154 1.4
94 *517:144 *517:153 0.497131
95 *517:143 *517:152 1.4
96 *517:142 *517:151 0.621415
97 *517:141 *517:150 1.4
98 *517:140 *517:149 7.187
99 *517:139 *517:148 1.4
100 *517:138 *517:147 0.00642855
101 *517:137 *517:146 2.9915
102 *517:137 *517:145 1.4
103 *517:136 *517:144 1.4
104 *517:135 *517:143 0.99431
105 *517:135 *517:142 1.4
106 *517:134 *517:141 1.4
107 *517:133 *517:140 1.4
108 *517:133 *517:139 0.248577
109 *517:132 *517:138 0.0599998
110 *517:131 *517:137 6.82717
111 *517:131 *517:136 0.497131
112 *517:129 *517:135 3.72866
113 *517:129 *517:134 0.0300007
114 *517:128 *517:133 0.745732
115 *517:127 *517:132 1.4
116 *517:126 *517:131 1.4
117 *517:125 *737:S0 1.4
118 *517:124 *517:129 1.4
119 *517:123 *517:128 1.4
120 *517:122 *517:127 0.124289
121 *517:121 *517:126 1.24283
122 *517:120 *517:125 0.00642841
123 *517:118 *517:124 5.21989
124 *517:117 *517:123 2.60999
125 *517:117 *517:122 1.4
126 *517:116 *517:121 1.4
127 *517:115 *517:120 1.4
128 *517:113 *751:S0 1.4
129 *517:112 *517:118 1.4
130 *517:111 *517:117 0.124285
131 *517:110 *517:116 1.5621
132 *517:110 *517:115 1.4
133 *517:109 *752:S0 1.4
134 *517:108 *517:113 0.00428582
135 *517:108 *517:112 0.0557156
136 *517:107 *517:111 1.4
137 *517:106 *517:110 0.0535701
138 *517:104 *517:109 0.0299995
139 *517:103 *517:108 1.9329
140 *517:102 *517:107 0.870021
141 *517:101 *517:106 1.4
142 *517:100 *753:S0 1.4
143 *517:99 *517:104 0.0428564
144 *517:98 *517:103 1.4
145 *517:97 *517:102 1.4
146 *517:96 *517:101 7.83005
147 *517:95 *517:100 0.00642846
148 *517:94 *517:99 1.4
149 *517:94 *517:98 5.59273
150 *517:92 *517:97 0.124285
151 *517:92 *517:96 1.4
152 *517:91 *517:95 1.4
153 *517:90 *517:94 2.48566
154 *517:88 *727:S0 1.4
155 *517:87 *517:92 8.78565
156 *517:87 *517:91 1.4
157 *517:86 *517:90 1.4
158 *517:85 *725:S0 1.4
159 *517:84 *517:88 0.0214282
160 *517:83 *517:87 0.535705
161 *517:83 *517:86 0.248567
162 *517:82 *517:85 0.00214291
163 *517:81 *517:84 0.0364279
164 *517:80 *517:83 1.4
165 *517:79 *517:82 0.0107145
166 *517:78 *517:81 1.4
167 *517:78 *517:80 4.84704
168 *517:77 *517:79 1.4
169 *517:77 *517:78 4.3501
170 *517:76 *517:77 2.98293
171 *517:74 *517:76 1.4
172 *517:73 *721:S0 1.4
173 *517:72 *517:74 1.0886
174 *517:72 *517:73 0.0300007
175 *517:71 *517:72 0.651445
176 *517:70 *517:71 1.4
177 *517:67 *517:70 6.21434
178 *517:66 *722:S0 1.4
179 *517:65 *744:S0 1.4
180 *517:64 *517:67 1.4
181 *517:63 *517:66 0.021429
182 *517:62 *517:65 0.042858
183 *517:61 *517:64 0.124288
184 *517:61 *517:63 0.660014
185 *517:60 *517:62 0.188575
186 *517:59 *517:61 1.4
187 *517:57 *517:60 1.4
188 *517:56 *517:59 3.35564
189 *517:55 *723:S0 1.4
190 *517:54 *517:57 0.124283
191 *517:53 *517:56 1.4
192 *517:51 *517:55 0.0107141
193 *517:50 *517:54 1.4
194 *517:50 *517:53 0.372865
195 *517:48 *724:S0 1.4
196 *517:46 *517:51 0.0921414
197 *517:46 *517:50 4.84722
198 *517:44 *743:S0 1.4
199 *517:43 *517:48 0.0257139
200 *517:42 *741:S0 1.4
201 *517:41 *517:46 1.4
202 *517:40 *726:S0 1.4
203 *517:39 *517:44 0.00428561
204 *517:38 *517:43 0.0278567
205 *517:37 *517:42 0.0449993
206 *517:36 *517:41 1.61568
207 *517:35 *517:40 0.0407133
208 *517:34 *517:39 0.00642841
209 *517:33 *517:38 1.4
210 *517:32 *517:37 1.4
211 *517:31 *517:36 1.4
212 *517:30 *517:35 0.0492845
213 *517:29 *517:34 1.4
214 *517:28 *517:33 0.497132
215 *517:27 *517:32 1.4
216 *517:27 *517:31 5.57777
217 *517:26 *517:30 1.4
218 *517:25 *517:29 0.37285
219 *517:24 *517:28 1.4
220 *517:24 *517:27 3.12209
221 *517:23 *517:26 0.124283
222 *517:22 *517:25 1.4
223 *517:22 *517:24 5.71702
224 *517:21 *517:23 1.4
225 *517:21 *517:22 2.98278
226 *517:20 *517:21 5.0956
227 *517:19 *517:20 1.4
228 *517:18 *517:19 1.1186
229 *517:16 *517:18 1.4
230 *517:15 *742:S0 1.4
231 *517:14 *517:16 0.0835702
232 *517:14 *517:15 0.0235711
233 *517:13 *517:14 1.4
234 *517:11 *517:13 1.4
235 *517:10 *728:S0 1.4
236 *517:9 *517:11 4.55779
237 *517:8 *517:10 0.0149998
238 *517:7 *517:9 1.4
239 *517:6 *517:8 0.0299996
240 *517:5 *517:7 0.124289
241 *517:5 *517:6 1.4
242 *517:4 *517:5 3.60437
243 *517:3 *517:4 1.4
244 *517:2 *517:3 0.619277
245 *517:1 *517:2 0.049285
246 *729:S0 *517:1 1.4
*END

*D_NET *518 0.000997773

*CONN
*I *958:A1 I *C 70.2965 14.672 *L 0.00269 *D OAI33X1
*I *962:B I *C 70.353 14.8255 *L 0.00272 *D NOR3BX1
*I *960:B0 I *C 70.5475 14.58 *L 0.00278 *D AOI211X1
*I *648:A0 I *C 71.6035 12.229 *L 0.00267 *D OAI211X1
*I *526:Y O *C 73.676 12.2855 *L 0 *D NAND2BX1

*CAP
1 *518:1 1.46085e-06
2 *518:2 9.0086e-06
3 *518:3 4.26082e-05
4 *518:4 3.35996e-05
5 *518:5 1.46085e-06
6 *518:6 1.38036e-05
7 *518:8 6.90179e-05
8 *518:9 5.52143e-05
9 *518:10 4.55299e-05
10 *518:11 0.000155337
11 *518:12 4.86951e-05
12 *518:13 0.000183581
13 *518:14 3.16518e-06
14 *518:15 1.38036e-05
15 *518:16 2.82432e-05
16 *518:18 1.38036e-05
17 *518:19 9.66251e-05
18 *518:20 4.62604e-06
19 *518:21 9.66251e-05
20 *518:22 1.04695e-05
21 *518:23 2.62954e-05
22 *518:24 5.84342e-06
23 *518:25 3.26257e-05
24 *518:27 6.33037e-06

*RES
1 *518:27 *526:Y 1.4
2 *518:25 *518:27 0.0557129
3 *518:24 *648:A0 1.4
4 *518:23 *518:25 0.231423
5 *518:22 *518:24 0.0514273
6 *518:21 *518:23 1.4
7 *518:20 *518:22 0.0407133
8 *518:19 *518:21 0.869986
9 *518:18 *518:20 1.4
10 *518:16 *518:19 1.4
11 *518:15 *518:18 0.124284
12 *518:14 *960:B0 1.4
13 *518:13 *518:16 0.248565
14 *518:13 *518:15 1.4
15 *518:12 *518:14 0.0278565
16 *518:11 *518:13 1.36711
17 *518:10 *518:12 0.400704
18 *518:9 *518:11 1.4
19 *518:8 *518:10 1.4
20 *518:8 *518:9 0.497135
21 *518:6 *518:8 0.124284
22 *518:5 *962:B 1.4
23 *518:4 *518:6 1.4
24 *518:3 *518:5 0.0128568
25 *518:3 *518:4 0.295707
26 *518:2 *518:3 0.0664269
27 *518:1 *518:2 0.0128568
28 *958:A1 *518:1 1.4
*END

*D_NET *519 0.000189762

*CONN
*I *971:A I *C 70.723 13.972 *L 0.00263 *D NOR2X1
*I *523:Y O *C 70.802 14.2145 *L 0 *D NAND2XL
*I *755:B I *C 71.0455 13.002 *L 0.00284 *D NAND2BX1

*CAP
1 *519:1 5.35646e-06
2 *519:2 9.9825e-06
3 *519:3 4.62604e-06
4 *519:4 1.38036e-05
5 *519:5 1.38036e-05
6 *519:6 5.91646e-05
7 *519:7 1.24173e-05
8 *519:8 5.86776e-05
9 *519:9 5.11299e-06
10 *519:10 6.81732e-06

*RES
1 *519:10 *755:B 1.4
2 *519:9 *523:Y 1.4
3 *519:8 *519:10 0.0599985
4 *519:7 *519:9 0.0449989
5 *519:6 *519:8 0.456417
6 *519:6 *519:7 0.0642841
7 *519:5 *519:6 1.4
8 *519:4 *519:5 0.124284
9 *519:3 *519:4 1.4
10 *519:2 *519:3 0.0407133
11 *519:1 *519:2 0.0471417
12 *971:A *519:1 1.4
*END

*D_NET *520 0.000902818

*CONN
*I *523:B I *C 70.802 14.7945 *L 0.00167 *D NAND2XL
*I *972:A I *C 70.152 15.547 *L 0.00273 *D INVX1
*I *525:B I *C 69.163 18.09 *L 0.00165 *D OR2X1
*I *757:B I *C 69.4195 19.926 *L 0.00542 *D NOR2X2
*I *528:Y O *C 71.1395 19.205 *L 0 *D NAND2XL

*CAP
1 *520:1 5.11299e-06
2 *520:2 5.11299e-06
3 *520:4 6.81732e-06
4 *520:5 6.81732e-06
5 *520:6 2.76072e-05
6 *520:7 2.76072e-05
7 *520:8 2.82432e-05
8 *520:9 0.000155337
9 *520:10 0.000127094
10 *520:11 1.38036e-05
11 *520:12 4.14108e-05
12 *520:13 1.38036e-05
13 *520:14 5.52143e-05
14 *520:15 1.46085e-06
15 *520:16 5.64864e-05
16 *520:17 1.38036e-05
17 *520:18 7.06079e-06
18 *520:19 8.76512e-05
19 *520:20 1.70433e-06
20 *520:21 5.59994e-06
21 *520:22 8.28215e-05
22 *520:23 3.28692e-05
23 *520:24 1.70433e-06
24 *520:26 8.28215e-05
25 *520:27 1.70433e-06
26 *520:29 3.89561e-06
27 *520:31 6.57384e-06
28 *520:32 2.67823e-06

*RES
1 *520:32 *528:Y 1.4
2 *520:31 *520:32 0.0235709
3 *520:29 *520:31 0.0342849
4 *520:27 *757:B 1.4
5 *520:26 *520:29 1.4
6 *520:24 *525:B 1.4
7 *520:23 *520:27 0.0149996
8 *520:22 *520:26 0.745702
9 *520:21 *972:A 1.4
10 *520:20 *520:24 0.0149996
11 *520:19 *520:23 0.274279
12 *520:19 *520:22 1.4
13 *520:18 *520:21 0.0492845
14 *520:17 *520:20 1.4
15 *520:16 *520:19 0.497131
16 *520:15 *520:18 0.0128568
17 *520:14 *520:17 0.124284
18 *520:14 *520:16 1.4
19 *520:13 *520:15 1.4
20 *520:12 *520:14 0.372851
21 *520:11 *520:13 0.124284
22 *520:10 *520:12 1.4
23 *520:9 *520:11 1.4
24 *520:9 *520:10 1.11854
25 *520:8 *520:9 0.248565
26 *520:7 *520:8 1.4
27 *520:6 *520:7 0.248567
28 *520:5 *520:6 1.4
29 *520:4 *520:5 0.0599985
30 *520:3 *520:4 1.4
31 *520:2 *520:3 1.4
32 *520:1 *520:2 0.0449989
33 *523:B *520:1 1.4
*END

*D_NET *521 0.000326178

*CONN
*I *534:D I *C 92.5665 11.599 *L 0.00276 *D SDFFRHQX1
*I *1008:Y O *C 94.777 10.852 *L 0 *D AND3XL

*CAP
1 *521:1 4.1707e-06
2 *521:2 5.12069e-05
3 *521:3 4.70362e-05
4 *521:4 9.54309e-05
5 *521:5 9.54309e-05
6 *521:6 1.22804e-05
7 *521:7 1.64511e-05
8 *521:8 4.1707e-06

*RES
1 *521:8 *1008:Y 1.4
2 *521:7 *521:8 0.0385708
3 *521:6 *521:7 0.11357
4 *521:5 *521:6 1.4
5 *521:4 *521:5 0.869979
6 *521:3 *521:4 1.4
7 *521:2 *521:3 0.434993
8 *521:1 *521:2 0.0385708
9 *534:D *521:1 1.4
*END

