*SPEF "IEEE 1481-1998"
*DESIGN "resource_shared_datapath"
*DATE "Fri Nov  7 17:51:48 2025"
*VENDOR "Cadence Design Systems, Inc."
*PROGRAM "Innovus"
*VERSION "21.15-s110_1"
*DESIGN_FLOW "PIN_CAP NONE" "NAME_SCOPE LOCAL"
*DIVIDER /
*DELIMITER :
*BUS_DELIMITER []
*T_UNIT 1 NS
*C_UNIT 1 PF
*R_UNIT 1 OHM
*L_UNIT 1 HENRY

// MMMC spef file for corner 'rccorner'

*NAME_MAP

*1 clk
*2 rst_n
*3 start
*4 A[7]
*5 A[6]
*6 A[5]
*7 A[4]
*8 A[3]
*9 A[2]
*10 A[1]
*11 A[0]
*12 B[7]
*13 B[6]
*14 B[5]
*15 B[4]
*16 B[3]
*17 B[2]
*18 B[1]
*19 B[0]
*20 C[7]
*21 C[6]
*22 C[5]
*23 C[4]
*24 C[3]
*25 C[2]
*26 C[1]
*27 C[0]
*28 D[7]
*29 D[6]
*30 D[5]
*31 D[4]
*32 D[3]
*33 D[2]
*34 D[1]
*35 D[0]
*36 Z[17]
*37 Z[16]
*38 Z[15]
*39 Z[14]
*40 Z[13]
*41 Z[12]
*42 Z[11]
*43 Z[10]
*44 Z[9]
*45 Z[8]
*46 Z[7]
*47 Z[6]
*48 Z[5]
*49 Z[4]
*50 Z[3]
*51 Z[2]
*52 Z[1]
*53 Z[0]
*54 done
*55 SE
*56 scan_in
*57 state[2]
*58 state[1]
*59 state[0]
*60 a_reg[7]
*61 a_reg[6]
*62 a_reg[5]
*63 a_reg[4]
*64 a_reg[3]
*65 a_reg[2]
*66 a_reg[1]
*67 a_reg[0]
*68 b_reg[7]
*69 b_reg[6]
*70 b_reg[5]
*71 b_reg[4]
*72 b_reg[3]
*73 b_reg[2]
*74 b_reg[1]
*75 b_reg[0]
*76 c_reg[7]
*77 c_reg[6]
*78 c_reg[5]
*79 c_reg[4]
*80 c_reg[3]
*81 c_reg[2]
*82 c_reg[1]
*83 c_reg[0]
*84 d_reg[7]
*85 d_reg[6]
*86 d_reg[5]
*87 d_reg[4]
*88 d_reg[3]
*89 d_reg[2]
*90 d_reg[1]
*91 d_reg[0]
*92 temp1_reg[8]
*93 temp1_reg[7]
*94 temp1_reg[6]
*95 temp1_reg[5]
*96 temp1_reg[4]
*97 temp1_reg[3]
*98 temp1_reg[2]
*99 temp1_reg[1]
*100 temp1_reg[0]
*101 temp2_reg[8]
*102 temp2_reg[7]
*103 temp2_reg[6]
*104 temp2_reg[5]
*105 temp2_reg[4]
*106 temp2_reg[3]
*107 temp2_reg[2]
*108 temp2_reg[1]
*109 temp2_reg[0]
*110 mul_out[17]
*111 mul_out[16]
*112 mul_out[15]
*113 mul_out[14]
*114 mul_out[13]
*115 mul_out[12]
*116 mul_out[11]
*117 mul_out[10]
*118 mul_out[9]
*119 mul_out[8]
*120 mul_out[7]
*121 mul_out[6]
*122 mul_out[5]
*123 mul_out[4]
*124 mul_out[3]
*125 mul_out[2]
*126 mul_out[1]
*127 mul_out[0]
*128 mul_121_41_n_0
*129 mul_121_41_n_1
*130 mul_121_41_n_2
*131 mul_121_41_n_3
*132 mul_121_41_n_4
*133 mul_121_41_n_5
*134 mul_121_41_n_6
*135 mul_121_41_n_7
*136 mul_121_41_n_8
*137 mul_121_41_n_10
*138 mul_121_41_n_11
*139 mul_121_41_n_12
*140 mul_121_41_n_13
*141 mul_121_41_n_14
*142 mul_121_41_n_15
*143 mul_121_41_n_16
*144 mul_121_41_n_17
*145 mul_121_41_n_18
*146 mul_121_41_n_19
*147 mul_121_41_n_20
*148 mul_121_41_n_21
*149 mul_121_41_n_22
*150 mul_121_41_n_23
*151 mul_121_41_n_24
*152 mul_121_41_n_25
*153 mul_121_41_n_26
*154 mul_121_41_n_27
*155 mul_121_41_n_28
*156 mul_121_41_n_29
*157 mul_121_41_n_30
*158 mul_121_41_n_31
*159 mul_121_41_n_32
*160 mul_121_41_n_33
*161 mul_121_41_n_34
*162 mul_121_41_n_35
*163 mul_121_41_n_36
*164 mul_121_41_n_37
*165 mul_121_41_n_38
*166 mul_121_41_n_39
*167 mul_121_41_n_40
*168 mul_121_41_n_41
*169 mul_121_41_n_42
*170 mul_121_41_n_43
*171 mul_121_41_n_44
*172 mul_121_41_n_45
*173 mul_121_41_n_46
*174 mul_121_41_n_48
*175 mul_121_41_n_49
*176 mul_121_41_n_50
*177 mul_121_41_n_51
*178 mul_121_41_n_53
*179 mul_121_41_n_54
*180 mul_121_41_n_55
*181 mul_121_41_n_56
*182 mul_121_41_n_57
*183 mul_121_41_n_58
*184 mul_121_41_n_59
*185 mul_121_41_n_60
*186 mul_121_41_n_61
*187 mul_121_41_n_62
*188 mul_121_41_n_63
*189 mul_121_41_n_64
*190 mul_121_41_n_65
*191 mul_121_41_n_66
*192 mul_121_41_n_67
*193 mul_121_41_n_68
*194 mul_121_41_n_69
*195 mul_121_41_n_70
*196 mul_121_41_n_71
*197 mul_121_41_n_72
*198 mul_121_41_n_73
*199 mul_121_41_n_74
*200 mul_121_41_n_75
*201 mul_121_41_n_76
*202 mul_121_41_n_77
*203 mul_121_41_n_78
*204 mul_121_41_n_79
*205 mul_121_41_n_80
*206 mul_121_41_n_81
*207 mul_121_41_n_82
*208 mul_121_41_n_83
*209 mul_121_41_n_84
*210 mul_121_41_n_85
*211 mul_121_41_n_86
*212 mul_121_41_n_87
*213 mul_121_41_n_88
*214 mul_121_41_n_89
*215 mul_121_41_n_90
*216 mul_121_41_n_91
*217 mul_121_41_n_92
*218 mul_121_41_n_93
*219 mul_121_41_n_94
*220 mul_121_41_n_95
*221 mul_121_41_n_96
*222 mul_121_41_n_97
*223 mul_121_41_n_98
*224 mul_121_41_n_99
*225 mul_121_41_n_100
*226 mul_121_41_n_101
*227 mul_121_41_n_102
*228 mul_121_41_n_103
*229 mul_121_41_n_104
*230 mul_121_41_n_105
*231 mul_121_41_n_106
*232 mul_121_41_n_107
*233 mul_121_41_n_108
*234 mul_121_41_n_109
*235 mul_121_41_n_110
*236 mul_121_41_n_111
*237 mul_121_41_n_112
*238 mul_121_41_n_113
*239 mul_121_41_n_114
*240 mul_121_41_n_115
*241 mul_121_41_n_116
*242 mul_121_41_n_117
*243 mul_121_41_n_118
*244 mul_121_41_n_119
*245 mul_121_41_n_120
*246 mul_121_41_n_121
*247 mul_121_41_n_122
*248 mul_121_41_n_123
*249 mul_121_41_n_124
*250 mul_121_41_n_125
*251 mul_121_41_n_126
*252 mul_121_41_n_127
*253 mul_121_41_n_128
*254 mul_121_41_n_129
*255 mul_121_41_n_130
*256 mul_121_41_n_131
*257 mul_121_41_n_132
*258 mul_121_41_n_133
*259 mul_121_41_n_134
*260 mul_121_41_n_135
*261 mul_121_41_n_136
*262 mul_121_41_n_137
*263 mul_121_41_n_138
*264 mul_121_41_n_139
*265 mul_121_41_n_140
*266 mul_121_41_n_141
*267 mul_121_41_n_142
*268 mul_121_41_n_143
*269 mul_121_41_n_144
*270 mul_121_41_n_145
*271 mul_121_41_n_146
*272 mul_121_41_n_147
*273 mul_121_41_n_148
*274 mul_121_41_n_149
*275 mul_121_41_n_150
*276 mul_121_41_n_151
*277 mul_121_41_n_152
*278 mul_121_41_n_153
*279 mul_121_41_n_154
*280 mul_121_41_n_155
*281 mul_121_41_n_157
*282 mul_121_41_n_158
*283 mul_121_41_n_159
*284 mul_121_41_n_160
*285 mul_121_41_n_161
*286 mul_121_41_n_162
*287 mul_121_41_n_163
*288 mul_121_41_n_164
*289 mul_121_41_n_165
*290 mul_121_41_n_166
*291 mul_121_41_n_167
*292 mul_121_41_n_169
*293 mul_121_41_n_170
*294 mul_121_41_n_171
*295 mul_121_41_n_172
*296 mul_121_41_n_173
*297 mul_121_41_n_174
*298 mul_121_41_n_175
*299 mul_121_41_n_176
*300 mul_121_41_n_177
*301 mul_121_41_n_178
*302 mul_121_41_n_179
*303 mul_121_41_n_180
*304 mul_121_41_n_181
*305 mul_121_41_n_182
*306 mul_121_41_n_183
*307 mul_121_41_n_184
*308 mul_121_41_n_185
*309 mul_121_41_n_186
*310 mul_121_41_n_187
*311 mul_121_41_n_188
*312 mul_121_41_n_189
*313 mul_121_41_n_191
*314 mul_121_41_n_192
*315 mul_121_41_n_193
*316 mul_121_41_n_194
*317 mul_121_41_n_195
*318 mul_121_41_n_196
*319 mul_121_41_n_197
*320 mul_121_41_n_198
*321 mul_121_41_n_199
*322 mul_121_41_n_200
*323 mul_121_41_n_201
*324 mul_121_41_n_202
*325 mul_121_41_n_203
*326 mul_121_41_n_205
*327 mul_121_41_n_206
*328 mul_121_41_n_207
*329 mul_121_41_n_208
*330 mul_121_41_n_209
*331 mul_121_41_n_210
*332 mul_121_41_n_211
*333 mul_121_41_n_213
*334 mul_121_41_n_215
*335 mul_121_41_n_217
*336 mul_121_41_n_219
*337 mul_121_41_n_221
*338 mul_121_41_n_223
*339 mul_121_41_n_225
*340 mul_121_41_n_227
*341 mul_121_41_n_229
*342 mul_121_41_n_231
*343 mul_121_41_n_233
*344 n_0
*345 n_1
*346 n_3
*347 n_4
*348 n_5
*349 n_6
*350 n_7
*351 n_8
*352 n_9
*353 n_10
*354 n_11
*355 n_12
*356 n_13
*357 n_14
*358 n_15
*359 n_16
*360 n_17
*361 n_18
*362 n_19
*363 n_20
*364 n_21
*365 n_22
*366 n_23
*367 n_24
*368 n_25
*369 n_26
*370 n_27
*371 n_28
*372 n_29
*373 n_30
*374 n_31
*375 n_32
*376 n_33
*377 n_34
*378 n_35
*379 n_36
*380 n_37
*381 n_38
*382 n_39
*383 n_40
*384 n_41
*385 n_42
*386 n_43
*387 n_44
*388 n_45
*389 n_46
*390 n_47
*391 n_48
*392 n_49
*393 n_50
*394 n_51
*395 n_52
*396 n_53
*397 n_54
*398 n_55
*399 n_56
*400 n_57
*401 n_58
*402 n_59
*403 n_60
*404 n_61
*405 n_62
*406 n_63
*407 n_64
*408 n_65
*409 n_66
*410 n_67
*411 n_68
*412 n_69
*413 n_70
*414 n_71
*415 n_72
*416 n_73
*417 n_74
*418 n_75
*419 n_76
*420 n_77
*421 n_78
*422 n_79
*423 n_80
*424 n_81
*425 n_82
*426 n_83
*427 n_84
*428 n_85
*429 n_86
*430 n_87
*431 n_88
*432 n_89
*433 n_90
*434 n_91
*435 n_92
*436 n_93
*437 n_94
*438 n_95
*439 n_96
*440 n_97
*441 n_98
*442 n_99
*443 n_100
*444 n_101
*445 n_102
*446 n_103
*447 n_104
*448 n_105
*449 n_106
*450 n_107
*451 n_108
*452 n_109
*453 n_110
*454 n_111
*455 n_112
*456 n_113
*457 n_114
*458 n_115
*459 n_116
*460 n_117
*461 n_118
*462 n_119
*463 n_120
*464 n_121
*465 n_122
*466 n_123
*467 n_124
*468 n_125
*469 n_126
*470 n_127
*471 n_128
*472 n_129
*473 n_130
*474 n_131
*475 n_132
*476 n_133
*477 n_134
*478 n_135
*479 n_136
*480 n_137
*481 n_138
*482 n_139
*483 n_140
*484 n_141
*485 scan_out
*486 g1110__2398
*487 a_reg_reg\[0\]
*488 a_reg_reg\[1\]
*489 a_reg_reg\[2\]
*490 a_reg_reg\[3\]
*491 a_reg_reg\[4\]
*492 a_reg_reg\[5\]
*493 a_reg_reg\[6\]
*494 a_reg_reg\[7\]
*495 b_reg_reg\[0\]
*496 b_reg_reg\[1\]
*497 b_reg_reg\[2\]
*498 b_reg_reg\[3\]
*499 b_reg_reg\[4\]
*500 b_reg_reg\[5\]
*501 b_reg_reg\[6\]
*502 b_reg_reg\[7\]
*503 c_reg_reg\[0\]
*504 c_reg_reg\[1\]
*505 c_reg_reg\[2\]
*506 c_reg_reg\[3\]
*507 c_reg_reg\[4\]
*508 c_reg_reg\[5\]
*509 c_reg_reg\[6\]
*510 c_reg_reg\[7\]
*511 d_reg_reg\[0\]
*512 d_reg_reg\[1\]
*513 d_reg_reg\[2\]
*514 d_reg_reg\[3\]
*515 d_reg_reg\[4\]
*516 d_reg_reg\[5\]
*517 d_reg_reg\[6\]
*518 d_reg_reg\[7\]
*519 state_reg\[0\]
*520 state_reg\[1\]
*521 state_reg\[2\]
*522 temp1_reg_reg\[0\]
*523 temp1_reg_reg\[1\]
*524 temp1_reg_reg\[2\]
*525 temp1_reg_reg\[3\]
*526 temp1_reg_reg\[4\]
*527 temp1_reg_reg\[5\]
*528 temp1_reg_reg\[6\]
*529 temp1_reg_reg\[7\]
*530 temp1_reg_reg\[8\]
*531 temp2_reg_reg\[0\]
*532 temp2_reg_reg\[1\]
*533 temp2_reg_reg\[2\]
*534 temp2_reg_reg\[3\]
*535 temp2_reg_reg\[4\]
*536 temp2_reg_reg\[5\]
*537 temp2_reg_reg\[6\]
*538 temp2_reg_reg\[7\]
*539 temp2_reg_reg\[8\]
*540 z_reg_reg\[0\]
*541 z_reg_reg\[1\]
*542 z_reg_reg\[2\]
*543 z_reg_reg\[3\]
*544 z_reg_reg\[4\]
*545 z_reg_reg\[5\]
*546 z_reg_reg\[6\]
*547 z_reg_reg\[7\]
*548 z_reg_reg\[8\]
*549 z_reg_reg\[9\]
*550 z_reg_reg\[10\]
*551 z_reg_reg\[11\]
*552 z_reg_reg\[12\]
*553 z_reg_reg\[13\]
*554 z_reg_reg\[14\]
*555 z_reg_reg\[15\]
*556 z_reg_reg\[16\]
*557 z_reg_reg\[17\]
*558 g1928__5107
*559 g1929__6260
*560 g1930__4319
*561 g1931__8428
*562 g1932__5526
*563 g1935__6783
*564 g1936__3680
*565 g1937__1617
*566 g1940__2802
*567 g1941__1705
*568 g1942__5122
*569 g1945__8246
*570 g1946__7098
*571 g1947__6131
*572 g1950__1881
*573 g1951__5115
*574 g1952__7482
*575 g1955__4733
*576 g1956__6161
*577 g1957__9315
*578 g1960__9945
*579 g1961__2883
*580 g1964__2346
*581 g1965__1666
*582 g1966__7410
*583 g1967__6417
*584 g1968__5477
*585 g1969
*586 g1970__2398
*587 g2003__5107
*588 g2004__6260
*589 g2005__4319
*590 g2006__8428
*591 g2007__5526
*592 g2008__6783
*593 g2009__3680
*594 g2010__1617
*595 g2011__2802
*596 g2026__1705
*597 g2027__5122
*598 g2033__8246
*599 g2034__7098
*600 g2035__6131
*601 g2036__1881
*602 g2037__5115
*603 g2038__7482
*604 g2039__4733
*605 g2040__6161
*606 g2041__9315
*607 g2042__9945
*608 g2043__2883
*609 g2044__2346
*610 g2045__1666
*611 g2046__7410
*612 g2047__6417
*613 g2048__5477
*614 g2049__2398
*615 g2050__5107
*616 g2051__6260
*617 g2052__4319
*618 g2053__8428
*619 g2054__5526
*620 g2055__6783
*621 g2056__3680
*622 g2057__1617
*623 g2058__2802
*624 g2059__1705
*625 g2060__5122
*626 g2062__8246
*627 g2063__7098
*628 g2064__6131
*629 g2065__1881
*630 g2066__5115
*631 g2067__7482
*632 g2068__4733
*633 g2069__6161
*634 g2070__9315
*635 g2071__9945
*636 g2072__2883
*637 g2074__2346
*638 g2075__1666
*639 g2076__7410
*640 g2077__6417
*641 g2078__5477
*642 g2079__2398
*643 g2080__5107
*644 g2081__6260
*645 g2082__4319
*646 g2083__8428
*647 g2084__5526
*648 g2085__6783
*649 g2086__3680
*650 g2087__1617
*651 g2088__2802
*652 g2089__1705
*653 g2090__5122
*654 g2091__8246
*655 g2092__7098
*656 g2093__6131
*657 g2094__1881
*658 g2097__5115
*659 g2098__7482
*660 g2099__4733
*661 g2100__6161
*662 g2101__9315
*663 g2102__9945
*664 g2103__2883
*665 g2104__2346
*666 g2105
*667 g2106
*668 g2107
*669 g2108__1666
*670 g2109__7410
*671 g2110__6417
*672 g2111__5477
*673 g2112__2398
*674 g2113__5107
*675 g2114__6260
*676 g2115__4319
*677 g2116__8428
*678 g2117__5526
*679 g2118__6783
*680 g2119__3680
*681 g2120__1617
*682 g2121__2802
*683 g2122__1705
*684 g2123__5122
*685 g2124__8246
*686 g2125__7098
*687 g2126__6131
*688 g2127__1881
*689 g2128
*690 g2129
*691 g2171
*692 g2__5115
*693 mul_121_41_g1927
*694 mul_121_41_g1928__7482
*695 mul_121_41_g1929__4733
*696 mul_121_41_g1930__6161
*697 mul_121_41_g1931__9315
*698 mul_121_41_g1932__9945
*699 mul_121_41_g1933__2883
*700 mul_121_41_g1934__2346
*701 mul_121_41_g1935__1666
*702 mul_121_41_g1936__7410
*703 mul_121_41_g1937__6417
*704 mul_121_41_g1938__5477
*705 mul_121_41_g1939__2398
*706 mul_121_41_g1940__5107
*707 mul_121_41_g1941__6260
*708 mul_121_41_g1942__4319
*709 mul_121_41_g1943__8428
*710 mul_121_41_g1944__5526
*711 mul_121_41_g1945__6783
*712 mul_121_41_g1946__3680
*713 mul_121_41_g1947__1617
*714 mul_121_41_g1948__2802
*715 mul_121_41_g1949__1705
*716 mul_121_41_g1950__5122
*717 mul_121_41_g1951__8246
*718 mul_121_41_g1952__7098
*719 mul_121_41_g1953__6131
*720 mul_121_41_g1954__1881
*721 mul_121_41_g1955__5115
*722 mul_121_41_g1956__7482
*723 mul_121_41_g1957__4733
*724 mul_121_41_g1958__6161
*725 mul_121_41_g1959__9315
*726 mul_121_41_g1960__9945
*727 mul_121_41_g1961__2883
*728 mul_121_41_g1962__2346
*729 mul_121_41_g1963__1666
*730 mul_121_41_g1964__7410
*731 mul_121_41_g1965__6417
*732 mul_121_41_g1966__5477
*733 mul_121_41_g1967__2398
*734 mul_121_41_g1968__5107
*735 mul_121_41_g1969__6260
*736 mul_121_41_g1970__4319
*737 mul_121_41_g1971__8428
*738 mul_121_41_g1972__5526
*739 mul_121_41_g1973__6783
*740 mul_121_41_g1974__3680
*741 mul_121_41_g1975__1617
*742 mul_121_41_g1976__2802
*743 mul_121_41_g1977__1705
*744 mul_121_41_g1978__5122
*745 mul_121_41_g1979__8246
*746 mul_121_41_g1980__7098
*747 mul_121_41_g1981__6131
*748 mul_121_41_g1982__1881
*749 mul_121_41_g1983__5115
*750 mul_121_41_g1984__7482
*751 mul_121_41_g1985__4733
*752 mul_121_41_g1986__6161
*753 mul_121_41_g1987__9315
*754 mul_121_41_g1988__9945
*755 mul_121_41_g1989__2883
*756 mul_121_41_g1990__2346
*757 mul_121_41_g1991__1666
*758 mul_121_41_g1992__7410
*759 mul_121_41_g1993__6417
*760 mul_121_41_g1994__5477
*761 mul_121_41_g1995
*762 mul_121_41_g1996
*763 mul_121_41_g1997__2398
*764 mul_121_41_g1998__5107
*765 mul_121_41_g1999__6260
*766 mul_121_41_g2000__4319
*767 mul_121_41_g2001__8428
*768 mul_121_41_g2002__5526
*769 mul_121_41_g2003__6783
*770 mul_121_41_g2004__3680
*771 mul_121_41_g2005__1617
*772 mul_121_41_g2006__2802
*773 mul_121_41_g2007__1705
*774 mul_121_41_g2008__5122
*775 mul_121_41_g2009__8246
*776 mul_121_41_g2010__7098
*777 mul_121_41_g2011__6131
*778 mul_121_41_g2012__1881
*779 mul_121_41_g2013__5115
*780 mul_121_41_g2014__7482
*781 mul_121_41_g2015__4733
*782 mul_121_41_g2016__6161
*783 mul_121_41_g2017__9315
*784 mul_121_41_g2018__9945
*785 mul_121_41_g2019__2883
*786 mul_121_41_g2020__2346
*787 mul_121_41_g2021
*788 mul_121_41_g2022__1666
*789 mul_121_41_g2023__7410
*790 mul_121_41_g2024__6417
*791 mul_121_41_g2025__5477
*792 mul_121_41_g2026__2398
*793 mul_121_41_g2027__5107
*794 mul_121_41_g2028__6260
*795 mul_121_41_g2029
*796 mul_121_41_g2030
*797 mul_121_41_g2031__4319
*798 mul_121_41_g2032__8428
*799 mul_121_41_g2033__5526
*800 mul_121_41_g2034__6783
*801 mul_121_41_g2035
*802 mul_121_41_g2036__3680
*803 mul_121_41_g2037
*804 mul_121_41_g2038__1617
*805 mul_121_41_g2039
*806 mul_121_41_g2040__2802
*807 mul_121_41_g2041__1705
*808 mul_121_41_g2042__5122
*809 mul_121_41_g2043
*810 mul_121_41_g2044
*811 mul_121_41_g2045
*812 mul_121_41_g2046
*813 mul_121_41_g2047
*814 mul_121_41_g2048
*815 mul_121_41_g2049
*816 mul_121_41_g2050
*817 mul_121_41_g2052__8246
*818 mul_121_41_g2053__7098
*819 mul_121_41_g2054__6131
*820 mul_121_41_g2055__1881
*821 mul_121_41_g2057__5115
*822 mul_121_41_g2058__7482
*823 mul_121_41_g2059__4733
*824 mul_121_41_g2060__6161
*825 mul_121_41_g2061__9315
*826 mul_121_41_g2062__9945
*827 mul_121_41_g2063__2883
*828 mul_121_41_g2064__2346
*829 mul_121_41_g2065__1666
*830 mul_121_41_g2066__7410
*831 mul_121_41_g2067__6417
*832 mul_121_41_g2068__5477
*833 mul_121_41_g2069__2398
*834 mul_121_41_g2070__5107
*835 mul_121_41_g2071__6260
*836 mul_121_41_g2072__4319
*837 mul_121_41_g2073__8428
*838 mul_121_41_g2074__5526
*839 mul_121_41_g2075__6783
*840 mul_121_41_g2076__3680
*841 mul_121_41_g2077__1617
*842 mul_121_41_g2078__2802
*843 mul_121_41_g2079
*844 mul_121_41_g2080
*845 mul_121_41_g2081
*846 mul_121_41_g2082
*847 mul_121_41_g2083__1705
*848 mul_121_41_g2084__5122
*849 mul_121_41_g2085__8246
*850 mul_121_41_g2086__7098
*851 mul_121_41_g2087__6131
*852 mul_121_41_g2088__1881
*853 mul_121_41_g2089__5115
*854 mul_121_41_g2090__7482
*855 mul_121_41_g2091__4733
*856 mul_121_41_g2092__6161
*857 mul_121_41_g2093__9315
*858 mul_121_41_g2094__9945
*859 mul_121_41_g2095__2883
*860 mul_121_41_g2096__2346
*861 mul_121_41_g2097__1666
*862 mul_121_41_g2098__7410
*863 mul_121_41_g2099__6417
*864 mul_121_41_g2100__5477
*865 mul_121_41_g2101__2398
*866 mul_121_41_g2102__5107
*867 mul_121_41_g2103__6260
*868 mul_121_41_g2104__4319
*869 mul_121_41_g2105__8428
*870 mul_121_41_g2106__5526
*871 mul_121_41_g2107__6783
*872 mul_121_41_g2108__3680
*873 mul_121_41_g2109__1617
*874 mul_121_41_g2110__2802
*875 mul_121_41_g2111__1705
*876 mul_121_41_g2112__5122
*877 mul_121_41_g2113__8246
*878 mul_121_41_g2114
*879 mul_121_41_g2115__7098
*880 mul_121_41_g2116__6131
*881 mul_121_41_g2117
*882 mul_121_41_g2118
*883 mul_121_41_g2119
*884 mul_121_41_g2120
*885 mul_121_41_g2121
*886 mul_121_41_g2122
*887 mul_121_41_g2123


*PORTS

*1 I *C 38.135 80.91
*2 I *C 39.875 80.91
*3 I *C 58.145 80.91
*4 I *C 52.055 80.91
*5 I *C 57.565 80.91
*6 I *C 71.485 80.91
*7 I *C 74.385 80.91
*8 I *C 82.94 66.845
*9 I *C 82.94 55.535
*10 I *C 82.94 53.795
*11 I *C 82.94 53.215
*12 I *C 39.295 80.91
*13 I *C 37.555 80.91
*14 I *C 30.015 80.91
*15 I *C 16.965 80.91
*16 I *C 11.455 80.91
*17 I *C 0 65.975
*18 I *C 0 64.815
*19 I *C 28.855 80.91
*20 I *C 51.475 80.91
*21 I *C 42.195 80.91
*22 I *C 30.885 80.91
*23 I *C 17.255 80.91
*24 I *C 11.745 80.91
*25 I *C 0 65.105
*26 I *C 0 63.945
*27 I *C 27.985 80.91
*28 I *C 54.955 80.91
*29 I *C 59.015 80.91
*30 I *C 71.485 80.91
*31 I *C 74.095 80.91
*32 I *C 82.94 66.845
*33 I *C 82.94 55.535
*34 I *C 82.94 54.085
*35 I *C 82.94 56.405
*36 O *C 82.94 39.005
*37 O *C 82.94 37.845
*38 O *C 82.94 27.695
*39 O *C 82.94 17.835
*40 O *C 82.94 11.455
*41 O *C 74.675 0
*42 O *C 71.775 0
*43 O *C 62.495 0
*44 O *C 51.185 0
*45 O *C 37.845 0
*46 O *C 25.955 0
*47 O *C 16.095 0
*48 O *C 9.715 0
*49 O *C 0 9.425
*50 O *C 0 14.065
*51 O *C 0 25.085
*52 O *C 0 35.525
*53 O *C 0 43.355
*54 O *C 54.085 80.91
*55 I *C 45.965 80.91
*56 I *C 82.94 52.345
*485 O *C 82.94 39.585


*D_NET *1 0.0513286

*CONN
*I *524:CK I *C 12.905 45.675 *L 0.00176 *D SDFFRHQX1
*I *534:CK I *C 7.975 43.065 *L 0.00176 *D SDFFRHQX1
*I *540:CK I *C 3.335 45.675 *L 0.00176 *D SDFFRHQX1
*I *525:CK I *C 16.385 48.285 *L 0.00176 *D SDFFRHQX1
*I *541:CK I *C 3.335 37.845 *L 0.00176 *D SDFFRHQX1
*I *532:CK I *C 7.685 50.895 *L 0.00176 *D SDFFRHQX1
*I *533:CK I *C 6.525 48.285 *L 0.00176 *D SDFFRHQX1
*I *542:CK I *C 3.335 30.015 *L 0.00176 *D SDFFRHQX1
*I *523:CK I *C 10.005 53.505 *L 0.00176 *D SDFFRHQX1
*I *496:CK I *C 5.945 58.725 *L 0.00176 *D SDFFRHQX1
*I *543:CK I *C 3.335 14.355 *L 0.00176 *D SDFFRHQX1
*I *544:CK I *C 3.335 9.135 *L 0.00176 *D SDFFRHQX1
*I *545:CK I *C 3.335 6.525 *L 0.00176 *D SDFFRHQX1
*I *497:CK I *C 3.335 61.335 *L 0.00176 *D SDFFRHQX1
*I *504:CK I *C 5.655 66.555 *L 0.00176 *D SDFFRHQX1
*I *505:CK I *C 3.335 63.945 *L 0.00176 *D SDFFRHQX1
*I *506:CK I *C 6.235 69.165 *L 0.00176 *D SDFFRHQX1
*I *546:CK I *C 7.975 3.915 *L 0.00176 *D SDFFRHQX1
*I *498:CK I *C 5.945 71.775 *L 0.00176 *D SDFFRHQX1
*I *507:CK I *C 15.515 71.775 *L 0.00176 *D SDFFRHQX1
*I *499:CK I *C 11.165 74.385 *L 0.00176 *D SDFFRHQX1
*I *500:CK I *C 25.085 71.775 *L 0.00176 *D SDFFRHQX1
*I *495:CK I *C 25.375 63.945 *L 0.00176 *D SDFFRHQX1
*I *508:CK I *C 24.505 69.165 *L 0.00176 *D SDFFRHQX1
*I *503:CK I *C 24.505 66.555 *L 0.00176 *D SDFFRHQX1
*I *502:CK I *C 34.075 69.165 *L 0.00176 *D SDFFRHQX1
*I *501:CK I *C 31.465 74.385 *L 0.00176 *D SDFFRHQX1
*I *509:CK I *C 35.815 71.775 *L 0.00176 *D SDFFRHQX1
*P *1 I *C 38.135 80.91 *L 0
*I *510:CK I *C 45.095 69.165 *L 0.00176 *D SDFFRHQX1
*I *494:CK I *C 47.995 71.775 *L 0.00176 *D SDFFRHQX1
*I *519:CK I *C 50.025 66.555 *L 0.00176 *D SDFFRHQX1
*I *518:CK I *C 50.605 74.385 *L 0.00176 *D SDFFRHQX1
*I *517:CK I *C 57.565 71.775 *L 0.00176 *D SDFFRHQX1
*I *493:CK I *C 54.665 69.165 *L 0.00176 *D SDFFRHQX1
*I *516:CK I *C 67.135 71.775 *L 0.00176 *D SDFFRHQX1
*I *492:CK I *C 67.135 69.165 *L 0.00176 *D SDFFRHQX1
*I *515:CK I *C 69.455 74.385 *L 0.00176 *D SDFFRHQX1
*I *491:CK I *C 69.455 66.555 *L 0.00176 *D SDFFRHQX1
*I *514:CK I *C 69.745 63.945 *L 0.00176 *D SDFFRHQX1
*I *490:CK I *C 69.745 61.335 *L 0.00176 *D SDFFRHQX1
*I *511:CK I *C 65.395 56.115 *L 0.00176 *D SDFFRHQX1
*I *512:CK I *C 68.295 53.505 *L 0.00176 *D SDFFRHQX1
*I *513:CK I *C 68.875 50.895 *L 0.00176 *D SDFFRHQX1
*I *489:CK I *C 69.165 48.285 *L 0.00176 *D SDFFRHQX1
*I *488:CK I *C 69.165 45.675 *L 0.00176 *D SDFFRHQX1
*I *487:CK I *C 71.485 43.065 *L 0.00176 *D SDFFRHQX1
*I *557:CK I *C 71.485 37.845 *L 0.00176 *D SDFFRHQX1
*I *556:CK I *C 71.485 35.235 *L 0.00176 *D SDFFRHQX1
*I *530:CK I *C 56.695 48.285 *L 0.00176 *D SDFFRHQX1
*I *529:CK I *C 52.635 45.675 *L 0.00176 *D SDFFRHQX1
*I *539:CK I *C 54.665 50.895 *L 0.00176 *D SDFFRHQX1
*I *555:CK I *C 71.485 19.575 *L 0.00176 *D SDFFRHQX1
*I *538:CK I *C 47.125 48.285 *L 0.00176 *D SDFFRHQX1
*I *521:CK I *C 53.795 53.505 *L 0.00176 *D SDFFRHQX1
*I *520:CK I *C 53.505 56.115 *L 0.00176 *D SDFFRHQX1
*I *554:CK I *C 71.485 14.355 *L 0.00176 *D SDFFRHQX1
*I *537:CK I *C 43.065 45.675 *L 0.00176 *D SDFFRHQX1
*I *553:CK I *C 71.485 9.135 *L 0.00176 *D SDFFRHQX1
*I *528:CK I *C 43.935 43.065 *L 0.00176 *D SDFFRHQX1
*I *552:CK I *C 70.325 6.525 *L 0.00176 *D SDFFRHQX1
*I *522:CK I *C 37.555 53.505 *L 0.00176 *D SDFFRHQX1
*I *551:CK I *C 66.265 3.915 *L 0.00176 *D SDFFRHQX1
*I *527:CK I *C 30.885 50.895 *L 0.00176 *D SDFFRHQX1
*I *550:CK I *C 54.375 3.915 *L 0.00176 *D SDFFRHQX1
*I *531:CK I *C 29.725 48.285 *L 0.00176 *D SDFFRHQX1
*I *549:CK I *C 43.065 3.915 *L 0.00176 *D SDFFRHQX1
*I *526:CK I *C 28.855 43.065 *L 0.00176 *D SDFFRHQX1
*I *535:CK I *C 28.275 45.675 *L 0.00176 *D SDFFRHQX1
*I *536:CK I *C 30.015 40.455 *L 0.00176 *D SDFFRHQX1
*I *548:CK I *C 27.985 3.915 *L 0.00176 *D SDFFRHQX1
*I *547:CK I *C 17.545 3.915 *L 0.00176 *D SDFFRHQX1

*CAP
1 *1:2 0.000477236
2 *1:4 0.000206802
3 *1:5 0.00052496
4 *1:6 0.000151726
5 *1:7 0.000269735
6 *1:8 0.000254526
7 *1:9 0.000168584
8 *1:10 0.000134867
9 *1:11 0.000151726
10 *1:12 0.000455178
11 *1:13 1.68584e-05
12 *1:14 0.000202301
13 *1:16 0.000505753
14 *1:19 0.000252876
15 *1:20 0.000168584
16 *1:22 0.0003342
17 *1:24 0.000404602
18 *1:25 0.000209066
19 *1:26 0.000151726
20 *1:27 0.000710205
21 *1:28 0.000109696
22 *1:29 0.000187497
23 *1:31 0.000439294
24 *1:33 0.000313418
25 *1:34 0.000187497
26 *1:35 0.000188182
27 *1:36 0.00034476
28 *1:37 3.13418e-05
29 *1:38 0.000188182
30 *1:39 0.000188051
31 *1:40 3.13418e-05
32 *1:41 0.000282273
33 *1:42 0.000235064
34 *1:43 7.83545e-05
35 *1:45 0.000548864
36 *1:46 0.000188051
37 *1:47 0.000140623
38 *1:49 0.000423409
39 *1:51 9.40254e-05
40 *1:52 0.000140623
41 *1:53 0.000188182
42 *1:55 0.000141038
43 *1:56 0.000141038
44 *1:57 4.70455e-05
45 *1:59 0.000203722
46 *1:60 3.13418e-05
47 *1:61 0.000141038
48 *1:63 0.000243215
49 *1:64 0.000266405
50 *1:67 0.000243215
51 *1:68 0.000109696
52 *1:70 9.4091e-05
53 *1:71 6.26836e-05
54 *1:72 9.4091e-05
55 *1:73 4.70127e-05
56 *1:75 4.68743e-05
57 *1:77 6.24991e-05
58 *1:78 0.000203122
59 *1:79 0.000203122
60 *1:80 6.24991e-05
61 *1:81 0.000281246
62 *1:82 0.000749989
63 *1:83 0.000141038
64 *1:84 0.000515618
65 *1:86 0.000141038
66 *1:87 0.000219393
67 *1:91 0.000329089
68 *1:93 0.000477992
69 *1:94 0.000125367
70 *1:95 0.000464167
71 *1:96 3.12496e-05
72 *1:97 0.000109696
73 *1:98 0.000104548
74 *1:99 0.000141038
75 *1:100 9.40254e-05
76 *1:101 8.71235e-05
77 *1:102 7.83545e-05
78 *1:103 6.26836e-05
79 *1:105 6.67574e-05
80 *1:108 8.34468e-05
81 *1:109 0.000317098
82 *1:110 5.22741e-05
83 *1:112 0.000300408
84 *1:113 6.96988e-05
85 *1:114 0.000226521
86 *1:115 0.00026137
87 *1:116 5.22741e-05
88 *1:117 0.000174247
89 *1:118 0.00026137
90 *1:119 3.33787e-05
91 *1:121 0.000104548
92 *1:122 0.000367166
93 *1:125 0.000104548
94 *1:126 0.000183583
95 *1:127 0.000150204
96 *1:128 0.00029622
97 *1:129 0.000139398
98 *1:131 0.000453042
99 *1:132 0.000139398
100 *1:133 0.00029622
101 *1:134 1.66894e-05
102 *1:135 0.000151973
103 *1:136 0.000121973
104 *1:137 0.000133515
105 *1:138 1.66894e-05
106 *1 0.000151973
107 *1:140 0.000200272
108 *1:141 0.000133515
109 *1:144 0.000166894
110 *1:145 0.000166894
111 *1:147 0.000283719
112 *1:149 0.000150204
113 *1:150 0.000232918
114 *1:152 0.000394191
115 *1:153 0.000693475
116 *1:154 0.000149663
117 *1:155 0.000661221
118 *1:157 0.000149663
119 *1:158 0.000129019
120 *1:159 0.000149663
121 *1:163 0.00019955
122 *1:164 0.000149663
123 *1:166 0.000149663
124 *1:167 6.65167e-05
125 *1:170 0.000149663
126 *1:171 0.000149663
127 *1:172 0.000133033
128 *1:173 0.00019955
129 *1:174 9.97751e-05
130 *1:176 8.31459e-05
131 *1:177 0.000216179
132 *1:178 0.000432359
133 *1:180 0.000282696
134 *1:182 9.6764e-05
135 *1:183 0.000161273
136 *1:184 8.06367e-05
137 *1:185 9.97751e-05
138 *1:186 9.6764e-05
139 *1:187 0.000116404
140 *1:188 8.06367e-05
141 *1:189 8.31459e-05
142 *1:191 9.97751e-05
143 *1:194 4.98875e-05
144 *1:196 0.000136363
145 *1:197 0.000171842
146 *1:198 0.000138953
147 *1:199 0.000104215
148 *1:201 8.68457e-05
149 *1:202 0.000156322
150 *1:203 0.000156322
151 *1:205 8.2839e-05
152 *1:206 6.94766e-05
153 *1:207 9.94068e-05
154 *1:208 0.000132542
155 *1:210 0.000563305
156 *1:211 0.000132542
157 *1:212 0.000563305
158 *1:213 0.000156322
159 *1:214 9.94068e-05
160 *1:215 0.000468967
161 *1:216 0.000215381
162 *1:217 0.000468967
163 *1:219 0.000231949
164 *1:220 8.68457e-05
165 *1:221 0.000312645
166 *1:223 0.000357821
167 *1:224 0.000121584
168 *1:225 8.68457e-05
169 *1:226 0.000191061
170 *1:228 0.000310317
171 *1:229 6.94766e-05
172 *1:230 0.000138953
173 *1:232 0.000515351
174 *1:233 0.000121107
175 *1:234 6.94766e-05
176 *1:235 0.000138953
177 *1:236 0.000513269
178 *1:237 0.000121107
179 *1:239 0.00020806
180 *1:240 0.000310241
181 *1:241 6.92037e-05
182 *1:242 3.45151e-05
183 *1:243 0.000136363
184 *1:245 0.00032657
185 *1:246 0.000155708
186 *1:247 3.45151e-05
187 *1:248 0.000116404
188 *1:249 6.53139e-05
189 *1:251 0.000155708
190 *1:253 0.000133033
191 *1:254 0.00021227
192 *1:255 6.92037e-05
193 *1:256 8.31459e-05
194 *1:258 0.00021227
195 *1:259 5.19028e-05
196 *1:260 9.97751e-05
197 *1:261 6.53139e-05
198 *1:262 0.00039664
199 *1:263 8.31459e-05
200 *1:264 0.000342898
201 *1:265 0.000275837
202 *1:266 0.000207091
203 *1:268 0.000408212
204 *1:270 0.000331069
205 *1:271 0.000138061
206 *1:273 0.000179613
207 *1:275 0.000400768
208 *1:276 0.000120803
209 *1:277 9.79709e-05
210 *1:278 8.71235e-05
211 *1:279 6.67574e-05
212 *1:280 6.90303e-05
213 *1:281 0.000163285
214 *1:282 0.000243946
215 *1:283 6.67574e-05
216 *1:285 0.000130628
217 *1:287 0.000243946
218 *1:289 0.000224652
219 *1:290 0.000121973
220 *1:291 0.000481398
221 *1:292 0.000104548
222 *1:293 0.000272792
223 *1:294 1.63285e-05
224 *1:295 8.60037e-05
225 *1:296 0.000385118
226 *1:297 1.63285e-05
227 *1:298 0.000293095
228 *1:299 0.000385118
229 *1:302 0.000207091
230 *1:304 4.81398e-05
231 *1:305 8.65046e-05
232 *1:306 0.000644901
233 *1:307 8.65046e-05
234 *1:308 0.000614085
235 *1:309 1.60466e-05
236 *1:310 0.000138061
237 *1:311 8.66203e-05
238 *1:313 6.90303e-05
239 *1:314 0.000138061
240 *1:315 0.000207889
241 *1:318 5.17727e-05
242 *1:319 3.45151e-05
243 *1:320 0.000155917
244 *1:323 3.45151e-05
245 *1:324 0.000225213
246 *1:327 0.000172576
247 *1:328 0.000225213
248 *1:329 6.90303e-05
249 *1:330 0.000189833
250 *1:331 0.000571694
251 *1:332 3.45151e-05
252 *1:333 0.000224348
253 *1:335 0.000571694
254 *1:337 0.000155318
255 *1:338 0.00028954
256 *1:339 1.55e-05
257 *1:341 0.000287417
258 *1:342 4.64999e-05
259 *1:343 0.000288818
260 *1:344 4.64999e-05
261 *1:345 0.000273617
262 *1:346 1.55e-05
263 *1:347 3.13637e-05
264 *1:349 4.70455e-05
265 *1:350 1.56818e-05

*RES
1 *1:350 *547:CK 1.4
2 *1:349 *1:350 0.124289
3 *1:347 *1:349 0.248578
4 *1:346 *548:CK 1.4
5 *1:345 *1:347 1.4
6 *1:344 *1:346 0.124283
7 *1:343 *1:345 2.2372
8 *1:342 *1:344 0.248567
9 *1:341 *1:343 0.124289
10 *1:339 *1:342 0.124283
11 *1:338 *1:341 2.11287
12 *1:337 *536:CK 1.4
13 *1:335 *1:339 1.4
14 *1:335 *1:338 0.124283
15 *1:333 *1:337 1.11855
16 *1:332 *535:CK 1.4
17 *1:331 *1:335 3.97705
18 *1:330 *526:CK 1.4
19 *1:330 *1:333 0.497134
20 *1:329 *1:332 0.248567
21 *1:328 *1:331 0.124283
22 *1:327 *1:330 0.869984
23 *1:327 *1:329 0.248567
24 *1:324 *1:328 1.49139
25 *1:323 *1:327 0.124283
26 *1:321 *549:CK 1.4
27 *1:321 *1:325 0.220714
28 *1:320 *1:324 0.124283
29 *1:319 *1:323 0.124283
30 *1:318 *531:CK 1.4
31 *1:315 *1:321 1.4
32 *1:315 *1:320 0.994263
33 *1:314 *1:319 0.124283
34 *1:313 *1:318 0.37285
35 *1:312 *550:CK 1.4
36 *1:312 *1:316 0.220714
37 *1:311 *1:315 0.497132
38 *1:310 *1:314 0.869984
39 *1:310 *1:313 0.124283
40 *1:309 *1:312 1.4
41 *1:308 *1:311 0.124283
42 *1:307 *1:310 1.4
43 *1:306 *1:309 0.124283
44 *1:306 *1:308 4.3499
45 *1:305 *1:307 0.621415
46 *1:304 *1:306 0.248566
47 *1:302 *1:305 1.4
48 *1:299 *1:304 0.124283
49 *1:298 *527:CK 1.4
50 *1:298 *1:302 1.4914
51 *1:297 *551:CK 1.4
52 *1:297 *1:300 0.0878571
53 *1:296 *1:299 2.85851
54 *1:295 *1:298 0.621417
55 *1:294 *1:297 0.124289
56 *1:293 *1:296 0.124283
57 *1:292 *1:295 1.4
58 *1:291 *1:294 1.4
59 *1:291 *1:293 1.98853
60 *1:290 *1:292 0.745732
61 *1:289 *1:291 1.73996
62 *1:287 *1:290 0.124289
63 *1:285 *1:289 1.4
64 *1:283 *522:CK 1.4
65 *1:282 *1:287 1.61575
66 *1:281 *552:CK 1.4
67 *1:281 *1:285 0.99431
68 *1:280 *528:CK 1.4
69 *1:279 *1:283 0.497132
70 *1:278 *1:282 0.124289
71 *1:277 *1:281 0.248577
72 *1:276 *1:280 0.497134
73 *1:275 *1:279 1.4
74 *1:275 *1:278 0.497155
75 *1:273 *1:277 0.497155
76 *1:271 *1:276 0.37285
77 *1:270 *1:275 2.36149
78 *1:268 *553:CK 1.4
79 *1:268 *1:273 0.870021
80 *1:266 *537:CK 1.4
81 *1:266 *1:271 0.621417
82 *1:265 *1:270 1.4
83 *1:264 *554:CK 1.4
84 *1:264 *1:268 2.2372
85 *1:263 *520:CK 1.4
86 *1:262 *1:266 0.869984
87 *1:262 *1:265 1.98853
88 *1:261 *1:264 0.372866
89 *1:260 *1:263 0.621441
90 *1:259 *1:262 1.4
91 *1:258 *1:261 0.124289
92 *1:256 *1:260 0.124288
93 *1:255 *1:259 0.372849
94 *1:254 *1:258 1.49146
95 *1:253 *521:CK 1.4
96 *1:253 *1:256 0.497153
97 *1:251 *1:255 0.124283
98 *1:249 *1:254 0.124289
99 *1:248 *1:253 0.497153
100 *1:247 *538:CK 1.4
101 *1:246 *1:251 0.994263
102 *1:245 *555:CK 1.4
103 *1:245 *1:249 0.372866
104 *1:243 *1:248 0.372865
105 *1:242 *1:247 0.248567
106 *1:241 *1:246 0.124283
107 *1:240 *1:245 2.11291
108 *1:239 *539:CK 1.4
109 *1:239 *1:243 0.621417
110 *1:237 *1:242 1.4
111 *1:237 *1:241 0.372849
112 *1:236 *1:240 0.248577
113 *1:235 *1:239 0.86998
114 *1:234 *529:CK 1.4
115 *1:233 *1:237 0.497132
116 *1:232 *1:236 3.47995
117 *1:230 *1:235 0.124283
118 *1:229 *1:234 0.497132
119 *1:228 *1:233 0.372849
120 *1:226 *1:232 0.248566
121 *1:225 *530:CK 1.4
122 *1:224 *1:230 0.86998
123 *1:223 *1:229 1.4
124 *1:223 *1:228 1.86424
125 *1:221 *556:CK 1.4
126 *1:221 *1:226 1.11855
127 *1:220 *1:225 0.621415
128 *1:219 *1:224 1.4
129 *1:219 *1:223 0.745698
130 *1:217 *557:CK 1.4
131 *1:217 *1:221 1.11855
132 *1:216 *1:220 1.4
133 *1:216 *1:219 0.994264
134 *1:215 *487:CK 1.4
135 *1:215 *1:217 2.23709
136 *1:214 *1:216 0.621415
137 *1:213 *1:215 1.11855
138 *1:212 *1:214 0.124283
139 *1:211 *1:213 1.4
140 *1:210 *1:212 4.10134
141 *1:208 *1:211 0.994264
142 *1:207 *1:210 0.124283
143 *1:206 *488:CK 1.4
144 *1:206 *1:208 1.4
145 *1:205 *1:207 0.621415
146 *1:203 *1:206 0.497132
147 *1:203 *1:205 1.4
148 *1:202 *489:CK 1.4
149 *1:202 *1:203 0.621415
150 *1:201 *1:202 0.497132
151 *1:199 *1:201 0.124283
152 *1:198 *513:CK 1.4
153 *1:198 *1:199 0.621415
154 *1:197 *1:198 0.372849
155 *1:196 *1:197 0.869994
156 *1:194 *1:196 0.124288
157 *1:191 *512:CK 1.4
158 *1:191 *1:194 0.248577
159 *1:190 *511:CK 1.4
160 *1:190 *1:192 0.220714
161 *1:189 *1:191 0.497153
162 *1:188 *1:190 1.4
163 *1:187 *1:189 0.124288
164 *1:186 *1:188 0.621415
165 *1:185 *1:187 0.74573
166 *1:184 *1:186 0.124283
167 *1:183 *1:185 1.4
168 *1:183 *1:184 0.497132
169 *1:182 *1:183 0.745698
170 *1:180 *1:182 1.4
171 *1:178 *490:CK 1.4
172 *1:178 *1:180 2.1129
173 *1:177 *514:CK 1.4
174 *1:177 *1:178 1.11859
175 *1:176 *1:177 0.497153
176 *1:174 *1:176 0.124288
177 *1:173 *491:CK 1.4
178 *1:173 *1:174 0.621441
179 *1:172 *1:173 0.870018
180 *1:171 *1:172 0.124288
181 *1:170 *1:171 0.994306
182 *1:167 *1:170 0.124288
183 *1:166 *515:CK 1.4
184 *1:164 *492:CK 1.4
185 *1:163 *1:167 0.372865
186 *1:163 *1:166 1.11859
187 *1:159 *516:CK 1.4
188 *1:159 *1:164 1.11859
189 *1:158 *1:163 1.4
190 *1:157 *493:CK 1.4
191 *1:156 *517:CK 1.4
192 *1:156 *1:160 0.220714
193 *1:155 *1:159 1.4
194 *1:155 *1:158 0.994264
195 *1:154 *1:157 1.11859
196 *1:153 *1:156 1.4
197 *1:153 *1:155 4.10134
198 *1:152 *1:154 1.4
199 *1:152 *1:153 1.24283
200 *1:150 *1:152 1.73999
201 *1:149 *518:CK 1.4
202 *1:147 *1:150 1.4
203 *1:147 *1:149 1.11855
204 *1:145 *519:CK 1.4
205 *1:144 *1:147 0.994264
206 *1:141 *494:CK 1.4
207 *1:140 *1:145 1.24283
208 *1:140 *1:144 0.248566
209 *1:138 *510:CK 1.4
210 *1:138 *1:142 0.0878571
211 *1:137 *1:141 0.994264
212 *1:136 *1:140 1.4
213 *1:135 *1 1.24287
214 *1:134 *1:138 0.124283
215 *1:133 *1:137 1.4
216 *1:133 *1:136 0.870021
217 *1:132 *1:135 1.4
218 *1:131 *1:134 1.4
219 *1:131 *1:133 1.24289
220 *1:129 *1:132 0.99431
221 *1:128 *1:131 1.98862
222 *1:127 *509:CK 1.4
223 *1:126 *1:129 1.4
224 *1:125 *1:128 0.124289
225 *1:122 *1:127 1.11855
226 *1:122 *1:126 1.36711
227 *1:121 *1:125 0.621444
228 *1:120 *501:CK 1.4
229 *1:120 *1:123 0.122143
230 *1:119 *1:122 0.248566
231 *1:118 *1:121 0.124289
232 *1:117 *1:120 1.4
233 *1:116 *1:119 1.4
234 *1:115 *1:118 1.74004
235 *1:114 *1:117 1.24289
236 *1:114 *1:116 0.372866
237 *1:113 *1:115 0.124289
238 *1:112 *1:114 1.4
239 *1:110 *1:113 0.372866
240 *1:109 *1:112 2.23709
241 *1:108 *502:CK 1.4
242 *1:108 *1:110 1.4
243 *1:108 *1:109 0.124283
244 *1:105 *1:108 0.497132
245 *1:103 *503:CK 1.4
246 *1:102 *508:CK 1.4
247 *1:101 *1:105 1.4
248 *1:100 *495:CK 1.4
249 *1:99 *1:103 0.497131
250 *1:99 *1:102 0.621413
251 *1:98 *1:101 0.621444
252 *1:97 *1:100 0.745696
253 *1:96 *1:99 1.4
254 *1:95 *1:98 0.124289
255 *1:94 *1:97 0.124283
256 *1:93 *1:96 0.248578
257 *1:93 *1:95 3.23151
258 *1:91 *1:94 0.869979
259 *1:91 *1:93 1.4
260 *1:87 *500:CK 1.4
261 *1:87 *1:91 1.73996
262 *1:86 *499:CK 1.4
263 *1:85 *507:CK 1.4
264 *1:85 *1:88 0.220714
265 *1:84 *1:87 1.4
266 *1:83 *1:86 1.11854
267 *1:82 *1:85 1.4
268 *1:82 *1:84 4.10153
269 *1:81 *1:83 1.4
270 *1:81 *1:82 1.86433
271 *1:80 *1:81 0.372866
272 *1:79 *1:80 0.124289
273 *1:78 *1:79 1.49147
274 *1:77 *1:78 0.124289
275 *1:75 *1:77 0.372866
276 *1:73 *498:CK 1.4
277 *1:73 *1:75 1.4
278 *1:72 *546:CK 1.4
279 *1:71 *1:73 0.372848
280 *1:70 *1:72 0.745733
281 *1:68 *1:71 0.124283
282 *1:67 *1:70 1.4
283 *1:64 *506:CK 1.4
284 *1:64 *1:68 0.745696
285 *1:63 *1:67 1.98862
286 *1:61 *505:CK 1.4
287 *1:60 *504:CK 1.4
288 *1:59 *1:64 1.36711
289 *1:57 *1:63 1.4
290 *1:56 *497:CK 1.4
291 *1:56 *1:61 1.11854
292 *1:55 *1:60 0.248565
293 *1:55 *1:59 0.248565
294 *1:53 *545:CK 1.4
295 *1:53 *1:57 0.372866
296 *1:52 *1:56 1.4
297 *1:51 *1:55 0.621413
298 *1:49 *544:CK 1.4
299 *1:49 *1:53 1.1186
300 *1:47 *1:52 1.1186
301 *1:46 *1:51 0.124283
302 *1:45 *543:CK 1.4
303 *1:45 *1:49 2.2372
304 *1:43 *496:CK 1.4
305 *1:42 *1:47 1.4
306 *1:42 *1:46 1.36711
307 *1:41 *1:45 2.11291
308 *1:40 *523:CK 1.4
309 *1:39 *1:43 0.621413
310 *1:39 *1:42 0.497131
311 *1:38 *1:41 0.124289
312 *1:37 *1:40 0.248565
313 *1:36 *1:39 0.372848
314 *1:35 *1:38 1.36718
315 *1:34 *1:37 1.4
316 *1:33 *1:36 2.36137
317 *1:31 *1:35 0.124289
318 *1:29 *1:34 1.49147
319 *1:28 *1:33 0.124283
320 *1:27 *542:CK 1.4
321 *1:27 *1:31 3.23151
322 *1:26 *533:CK 1.4
323 *1:25 *1:29 1.4
324 *1:25 *1:28 0.745696
325 *1:24 *1:27 2.11291
326 *1:22 *1:26 1.1186
327 *1:22 *1:25 0.870006
328 *1:20 *1:24 0.870021
329 *1:19 *532:CK 1.4
330 *1:19 *1:22 0.497155
331 *1:16 *541:CK 1.4
332 *1:16 *1:20 0.372866
333 *1:14 *1:19 1.36718
334 *1:13 *525:CK 1.4
335 *1:12 *540:CK 1.4
336 *1:12 *1:16 3.3558
337 *1:11 *534:CK 1.4
338 *1:10 *1:14 0.124289
339 *1:9 *1:13 0.124289
340 *1:8 *1:12 1.4
341 *1:7 *1:11 1.1186
342 *1:7 *1:10 0.870021
343 *1:6 *1:9 1.1186
344 *1:5 *1:8 1.98862
345 *1:5 *1:7 1.4
346 *1:4 *1:6 1.4
347 *1:2 *1:5 2.11291
348 *1:2 *1:4 1.61575
349 *1:1 *524:CK 1.4
350 *1:1 *1:2 1.4
351 *1:0 *1:1 0.220714
*END

*D_NET *2 0.0510255

*CONN
*I *546:RN I *C 9.715 3.915 *L 0.00439 *D SDFFRHQX1
*I *545:RN I *C 5.075 6.525 *L 0.00439 *D SDFFRHQX1
*I *544:RN I *C 5.075 9.135 *L 0.00439 *D SDFFRHQX1
*I *547:RN I *C 19.285 3.915 *L 0.00439 *D SDFFRHQX1
*I *543:RN I *C 5.075 14.355 *L 0.00439 *D SDFFRHQX1
*I *548:RN I *C 29.725 3.915 *L 0.00439 *D SDFFRHQX1
*I *542:RN I *C 5.075 30.015 *L 0.00439 *D SDFFRHQX1
*I *541:RN I *C 5.075 37.845 *L 0.00439 *D SDFFRHQX1
*I *540:RN I *C 5.075 45.675 *L 0.00439 *D SDFFRHQX1
*I *534:RN I *C 9.715 43.065 *L 0.00439 *D SDFFRHQX1
*I *532:RN I *C 9.425 50.895 *L 0.00439 *D SDFFRHQX1
*I *524:RN I *C 14.645 45.675 *L 0.00439 *D SDFFRHQX1
*I *533:RN I *C 8.265 48.285 *L 0.00439 *D SDFFRHQX1
*I *525:RN I *C 18.125 48.285 *L 0.00439 *D SDFFRHQX1
*I *496:RN I *C 7.685 58.725 *L 0.00439 *D SDFFRHQX1
*I *523:RN I *C 11.745 53.505 *L 0.00439 *D SDFFRHQX1
*I *531:RN I *C 31.465 48.285 *L 0.00439 *D SDFFRHQX1
*I *527:RN I *C 32.625 50.895 *L 0.00439 *D SDFFRHQX1
*I *536:RN I *C 31.755 40.455 *L 0.00439 *D SDFFRHQX1
*I *535:RN I *C 30.015 45.675 *L 0.00439 *D SDFFRHQX1
*I *526:RN I *C 30.595 43.065 *L 0.00439 *D SDFFRHQX1
*I *504:RN I *C 7.395 66.555 *L 0.00439 *D SDFFRHQX1
*I *506:RN I *C 7.975 69.165 *L 0.00439 *D SDFFRHQX1
*I *505:RN I *C 5.075 63.945 *L 0.00439 *D SDFFRHQX1
*I *497:RN I *C 5.075 61.335 *L 0.00439 *D SDFFRHQX1
*I *498:RN I *C 7.685 71.775 *L 0.00439 *D SDFFRHQX1
*I *499:RN I *C 12.905 74.385 *L 0.00439 *D SDFFRHQX1
*I *507:RN I *C 17.255 71.775 *L 0.00439 *D SDFFRHQX1
*I *500:RN I *C 26.825 71.775 *L 0.00439 *D SDFFRHQX1
*I *508:RN I *C 26.245 69.165 *L 0.00439 *D SDFFRHQX1
*I *501:RN I *C 33.205 74.385 *L 0.00439 *D SDFFRHQX1
*I *503:RN I *C 26.245 66.555 *L 0.00439 *D SDFFRHQX1
*P *2 I *C 39.875 80.91 *L 0
*I *509:RN I *C 37.555 71.775 *L 0.00439 *D SDFFRHQX1
*I *502:RN I *C 35.815 69.165 *L 0.00439 *D SDFFRHQX1
*I *495:RN I *C 27.115 63.945 *L 0.00439 *D SDFFRHQX1
*I *510:RN I *C 46.835 69.165 *L 0.00439 *D SDFFRHQX1
*I *494:RN I *C 49.735 71.775 *L 0.00439 *D SDFFRHQX1
*I *519:RN I *C 51.765 66.555 *L 0.00439 *D SDFFRHQX1
*I *518:RN I *C 52.345 74.385 *L 0.00439 *D SDFFRHQX1
*I *493:RN I *C 56.405 69.165 *L 0.00439 *D SDFFRHQX1
*I *517:RN I *C 59.305 71.775 *L 0.00439 *D SDFFRHQX1
*I *516:RN I *C 68.875 71.775 *L 0.00439 *D SDFFRHQX1
*I *492:RN I *C 68.875 69.165 *L 0.00439 *D SDFFRHQX1
*I *515:RN I *C 71.195 74.385 *L 0.00439 *D SDFFRHQX1
*I *491:RN I *C 71.195 66.555 *L 0.00439 *D SDFFRHQX1
*I *514:RN I *C 71.485 63.945 *L 0.00439 *D SDFFRHQX1
*I *490:RN I *C 71.485 61.335 *L 0.00439 *D SDFFRHQX1
*I *512:RN I *C 70.035 53.505 *L 0.00439 *D SDFFRHQX1
*I *511:RN I *C 67.135 56.115 *L 0.00439 *D SDFFRHQX1
*I *513:RN I *C 70.615 50.895 *L 0.00439 *D SDFFRHQX1
*I *489:RN I *C 70.905 48.285 *L 0.00439 *D SDFFRHQX1
*I *488:RN I *C 70.905 45.675 *L 0.00439 *D SDFFRHQX1
*I *487:RN I *C 73.225 43.065 *L 0.00439 *D SDFFRHQX1
*I *530:RN I *C 58.435 48.285 *L 0.00439 *D SDFFRHQX1
*I *539:RN I *C 56.405 50.895 *L 0.00439 *D SDFFRHQX1
*I *557:RN I *C 73.225 37.845 *L 0.00439 *D SDFFRHQX1
*I *556:RN I *C 73.225 35.235 *L 0.00439 *D SDFFRHQX1
*I *529:RN I *C 54.375 45.675 *L 0.00439 *D SDFFRHQX1
*I *555:RN I *C 73.225 19.575 *L 0.00439 *D SDFFRHQX1
*I *521:RN I *C 55.535 53.505 *L 0.00439 *D SDFFRHQX1
*I *538:RN I *C 48.865 48.285 *L 0.00439 *D SDFFRHQX1
*I *554:RN I *C 73.225 14.355 *L 0.00439 *D SDFFRHQX1
*I *553:RN I *C 73.225 9.135 *L 0.00439 *D SDFFRHQX1
*I *520:RN I *C 55.245 56.115 *L 0.00439 *D SDFFRHQX1
*I *537:RN I *C 44.805 45.675 *L 0.00439 *D SDFFRHQX1
*I *552:RN I *C 72.065 6.525 *L 0.00439 *D SDFFRHQX1
*I *528:RN I *C 45.675 43.065 *L 0.00439 *D SDFFRHQX1
*I *522:RN I *C 39.295 53.505 *L 0.00439 *D SDFFRHQX1
*I *551:RN I *C 68.005 3.915 *L 0.00439 *D SDFFRHQX1
*I *550:RN I *C 56.115 3.915 *L 0.00439 *D SDFFRHQX1
*I *549:RN I *C 44.805 3.915 *L 0.00439 *D SDFFRHQX1

*CAP
1 *2:2 0.000273617
2 *2:4 4.56028e-05
3 *2:5 0.000243215
4 *2:6 0.00048643
5 *2:7 0.000141136
6 *2:8 0.001045
7 *2:9 0.000282273
8 *2:10 0.000573773
9 *2:11 1.56818e-05
10 *2:12 0.000423409
11 *2:14 1.55e-05
12 *2:15 1.56818e-05
13 *2:16 0.000454773
14 *2:18 1.55e-05
15 *2:21 0.000188182
16 *2:25 0.000156818
17 *2:26 0.000156818
18 *2:27 0.000564748
19 *2:28 0.00100424
20 *2:29 0.000573187
21 *2:31 0.000151726
22 *2:33 0.000252876
23 *2:34 0.000252876
24 *2:35 8.42922e-05
25 *2:36 0.000118009
26 *2:37 0.000254526
27 *2:38 6.74337e-05
28 *2:39 0.00052496
29 *2:41 0.000101151
30 *2:42 0.000397697
31 *2:43 0.000387744
32 *2:44 8.42922e-05
33 *2:45 0.000159079
34 *2:46 6.74337e-05
35 *2:47 0.000438319
36 *2:49 9.54472e-05
37 *2:50 6.74337e-05
38 *2:51 0.0003342
39 *2:53 6.36315e-05
40 *2:55 0.000130711
41 *2:56 0.000151726
42 *2:57 0.000185443
43 *2:58 4.70127e-05
44 *2:60 0.000236018
45 *2:61 0.000203722
46 *2:62 5.05753e-05
47 *2:64 0.000188051
48 *2:65 0.000203122
49 *2:66 0.000757534
50 *2:67 0.000125367
51 *2:68 0.000203122
52 *2:69 0.000826737
53 *2:70 0.000156709
54 *2:72 6.92037e-05
55 *2:73 5.17727e-05
56 *2:74 6.26836e-05
57 *2:78 0.000103545
58 *2:79 0.000207091
59 *2:80 0.000282076
60 *2:81 0.000103545
61 *2:82 0.000224348
62 *2:84 0.000282076
63 *2:86 0.000327894
64 *2:87 0.000241606
65 *2:88 4.70127e-05
66 *2:89 0.000310636
67 *2:90 3.45151e-05
68 *2:91 0.000155318
69 *2:92 4.70127e-05
70 *2:96 9.40254e-05
71 *2:97 0.000109696
72 *2:98 0.000124998
73 *2:99 6.26836e-05
74 *2:101 0.000124998
75 *2:102 0.000141038
76 *2:103 6.26836e-05
77 *2:104 0.000188051
78 *2:105 0.000203722
79 *2:106 9.40254e-05
80 *2:108 0.000141038
81 *2:110 7.83545e-05
82 *2:112 0.000156709
83 *2:113 9.40254e-05
84 *2:115 0.000281246
85 *2:116 0.00035937
86 *2:117 9.37487e-05
87 *2:118 4.70127e-05
88 *2:119 0.000171873
89 *2:120 4.70127e-05
90 *2:121 0.000203122
91 *2:123 7.81239e-05
92 *2:124 7.83545e-05
93 *2:125 0.000390619
94 *2:126 7.83545e-05
95 *2:127 0.000390619
96 *2:129 0.000110273
97 *2:130 0.000305545
98 *2:131 0.000348494
99 *2:132 8.34468e-05
100 *2:133 0.000191672
101 *2:134 0.00026703
102 *2:135 0.000243946
103 *2:136 3.33787e-05
104 *2:137 0.00025034
105 *2:138 0.00026137
106 *2:139 6.67574e-05
107 *2:141 0.000200272
108 *2:143 0.000226521
109 *2:144 0.000233651
110 *2:145 6.67574e-05
111 *2:146 8.34468e-05
112 *2:147 5.00681e-05
113 *2:148 0.000139398
114 *2:149 8.34468e-05
115 *2:150 0.00025034
116 *2:152 0.000150204
117 *2:154 0.000602586
118 *2:155 8.34468e-05
119 *2:156 1.66894e-05
120 *2:157 0.000166894
121 *2 0.000402314
122 *2:159 0.000200272
123 *2:162 5.00681e-05
124 *2:163 0.000243946
125 *2:165 0.000365919
126 *2:166 0.000174247
127 *2:167 0.000226521
128 *2:168 0.00029622
129 *2:169 3.33787e-05
130 *2:170 0.000139398
131 *2:171 0.000116825
132 *2:172 3.33787e-05
133 *2:173 6.96988e-05
134 *2:174 0.000183583
135 *2:175 0.000116825
136 *2:177 6.90501e-05
137 *2:178 0.000183583
138 *2:180 0.000242559
139 *2:182 0.000387056
140 *2:183 0.000216179
141 *2:184 0.000693475
142 *2:185 8.31459e-05
143 *2:186 0.000216179
144 *2:187 0.000661221
145 *2:188 6.65167e-05
146 *2:189 8.31459e-05
147 *2:191 0.000129019
148 *2:192 0.000149663
149 *2:193 6.65167e-05
150 *2:195 0.000448988
151 *2:196 6.65167e-05
152 *2:197 8.31459e-05
153 *2:199 0.000216179
154 *2:200 0.000349213
155 *2:204 0.000133033
156 *2:206 4.98875e-05
157 *2:207 0.000182921
158 *2:208 0.000249438
159 *2:210 0.000116404
160 *2:212 0.000282696
161 *2:213 0.000266067
162 *2:214 6.45093e-05
163 *2:215 0.000225783
164 *2:216 0.000161273
165 *2:217 8.31459e-05
166 *2:218 6.65167e-05
167 *2:219 0.0002014
168 *2:220 6.65167e-05
169 *2:221 0.000152992
170 *2:224 6.94766e-05
171 *2:225 0.000156322
172 *2:226 0.000138953
173 *2:228 5.21074e-05
174 *2:229 8.68457e-05
175 *2:230 0.000156322
176 *2:232 0.000182246
177 *2:233 0.000104215
178 *2:234 0.000115975
179 *2:235 8.2839e-05
180 *2:237 1.73691e-05
181 *2:238 0.000165678
182 *2:239 0.000277906
183 *2:240 0.000165678
184 *2:241 0.000347383
185 *2:242 0.000513602
186 *2:243 0.000104215
187 *2:245 0.000613009
188 *2:246 0.000191061
189 *2:247 0.000215381
190 *2:248 5.21074e-05
191 *2:249 0.000191061
192 *2:250 0.00014911
193 *2:251 0.00020843
194 *2:252 5.21074e-05
195 *2:253 6.94766e-05
196 *2:254 6.62712e-05
197 *2:255 0.000104215
198 *2:256 0.000294905
199 *2:258 0.00020843
200 *2:259 0.000202846
201 *2:260 0.000121584
202 *2:261 8.64757e-05
203 *2:263 0.00107084
204 *2:265 0.000203579
205 *2:266 1.73691e-05
206 *2:267 4.8382e-05
207 *2:268 0.00106148
208 *2:270 0.000121107
209 *2:272 4.8382e-05
210 *2:273 0.000163285
211 *2:275 0.000103806
212 *2:276 6.65167e-05
213 *2:277 0.000163285
214 *2:278 5.17727e-05
215 *2:279 0.000133033
216 *2:280 0.000163285
217 *2:281 0.000120803
218 *2:282 8.31459e-05
219 *2:284 0.000310241
220 *2:285 6.90303e-05
221 *2:287 9.97751e-05
222 *2:288 0.000489854
223 *2:290 0.000242213
224 *2:291 8.31459e-05
225 *2:292 0.000195942
226 *2:294 0.000242213
227 *2:296 6.41864e-05
228 *2:297 0.000463397
229 *2:298 0.000112326
230 *2:299 0.000239049
231 *2:300 0.000293379
232 *2:301 6.41864e-05
233 *2:302 4.89854e-05
234 *2:303 0.000156822
235 *2:304 0.000120803
236 *2:306 0.000144419
237 *2:307 4.89854e-05
238 *2:308 0.000278795
239 *2:309 0.000138061
240 *2:310 0.000144419
241 *2:312 0.000174247
242 *2:313 8.62879e-05
243 *2:314 6.41864e-05
244 *2:315 5.22741e-05
245 *2:317 4.81398e-05
246 *2:319 9.79709e-05
247 *2:322 9.79709e-05
248 *2:323 6.41864e-05
249 *2:325 8.0233e-05
250 *2:326 0.00060977
251 *2:327 0.000974931
252 *2:328 0.000398532
253 *2:329 1.63285e-05
254 *2:330 0.000242537
255 *2:331 1.63285e-05
256 *2:332 0.000242537
257 *2:335 6.92962e-05
258 *2:336 5.19722e-05
259 *2:337 1.55e-05
260 *2:338 1.55e-05

*RES
1 *2:338 *549:RN 1.4
2 *2:338 *2:339 0.212143
3 *2:337 *2:338 0.124283
4 *2:336 *2:337 1.4
5 *2:335 *2:336 0.372849
6 *2:332 *2:335 0.124283
7 *2:331 *550:RN 1.4
8 *2:331 *2:333 0.212143
9 *2:330 *2:332 1.61568
10 *2:329 *2:331 0.124289
11 *2:328 *2:330 0.124283
12 *2:327 *2:329 1.4
13 *2:327 *2:328 2.85851
14 *2:326 *2:327 4.59847
15 *2:325 *2:326 0.124283
16 *2:323 *2:325 0.497132
17 *2:322 *551:RN 1.4
18 *2:322 *2:323 1.4
19 *2:319 *2:322 0.745732
20 *2:318 *522:RN 1.4
21 *2:318 *2:320 0.03
22 *2:317 *2:319 1.4
23 *2:315 *2:318 1.4
24 *2:314 *2:317 0.372849
25 *2:313 *528:RN 1.4
26 *2:312 *2:315 0.372866
27 *2:310 *2:314 0.124283
28 *2:309 *2:313 0.621417
29 *2:308 *2:312 0.870021
30 *2:307 *552:RN 1.4
31 *2:306 *2:310 0.994264
32 *2:304 *2:309 0.37285
33 *2:303 *2:308 1.1186
34 *2:302 *2:307 0.372866
35 *2:301 *2:306 0.124283
36 *2:300 *537:RN 1.4
37 *2:300 *2:304 0.497134
38 *2:299 *2:303 1.4
39 *2:298 *2:302 1.4
40 *2:298 *2:301 0.372849
41 *2:297 *2:300 1.61568
42 *2:297 *2:299 1.73997
43 *2:296 *2:298 0.497132
44 *2:294 *2:297 1.4
45 *2:292 *2:296 1.4
46 *2:291 *520:RN 1.4
47 *2:290 *2:294 1.73996
48 *2:288 *553:RN 1.4
49 *2:288 *2:292 1.49146
50 *2:287 *2:291 0.621441
51 *2:285 *2:290 1.4
52 *2:284 *554:RN 1.4
53 *2:284 *2:288 2.2372
54 *2:282 *2:287 0.124288
55 *2:281 *538:RN 1.4
56 *2:281 *2:285 0.497134
57 *2:280 *2:284 0.124289
58 *2:279 *521:RN 1.4
59 *2:279 *2:282 0.497153
60 *2:278 *2:281 0.37285
61 *2:277 *2:280 1.1186
62 *2:276 *2:279 0.497153
63 *2:275 *2:278 1.4
64 *2:273 *2:277 0.124289
65 *2:272 *2:276 1.4
66 *2:270 *2:275 0.745697
67 *2:268 *555:RN 1.4
68 *2:268 *2:273 1.1186
69 *2:267 *2:272 0.372849
70 *2:266 *529:RN 1.4
71 *2:265 *2:270 0.124283
72 *2:263 *556:RN 1.4
73 *2:263 *2:268 6.71141
74 *2:261 *2:267 1.4
75 *2:260 *2:266 0.124283
76 *2:259 *2:265 1.36711
77 *2:258 *557:RN 1.4
78 *2:258 *2:263 1.11855
79 *2:256 *539:RN 1.4
80 *2:256 *2:261 0.621417
81 *2:255 *2:260 0.745697
82 *2:254 *2:259 0.124283
83 *2:253 *2:258 0.372849
84 *2:252 *530:RN 1.4
85 *2:251 *2:256 1.49139
86 *2:250 *2:255 1.4
87 *2:250 *2:254 0.372849
88 *2:249 *2:253 0.124283
89 *2:248 *2:252 0.372849
90 *2:247 *2:251 1.4
91 *2:247 *2:250 0.745698
92 *2:246 *2:249 1.24283
93 *2:245 *2:248 1.4
94 *2:245 *2:247 0.869981
95 *2:243 *2:246 0.124283
96 *2:242 *2:245 3.72849
97 *2:241 *487:RN 1.4
98 *2:241 *2:243 0.621415
99 *2:240 *2:242 0.124283
100 *2:239 *2:241 1.86424
101 *2:238 *2:240 1.11855
102 *2:237 *2:239 0.124283
103 *2:235 *2:238 0.124283
104 *2:234 *2:237 1.4
105 *2:233 *488:RN 1.4
106 *2:232 *2:235 0.497132
107 *2:232 *2:234 0.869981
108 *2:230 *2:233 0.745697
109 *2:230 *2:232 1.4
110 *2:229 *489:RN 1.4
111 *2:229 *2:230 0.372849
112 *2:228 *2:229 0.248566
113 *2:226 *2:228 0.124283
114 *2:225 *513:RN 1.4
115 *2:225 *2:226 0.86998
116 *2:224 *2:225 0.248566
117 *2:221 *2:224 0.248566
118 *2:220 *511:RN 1.4
119 *2:219 *512:RN 1.4
120 *2:219 *2:221 0.870005
121 *2:218 *2:220 0.497153
122 *2:217 *2:219 0.621441
123 *2:216 *2:218 1.4
124 *2:215 *2:217 1.4
125 *2:215 *2:216 1.24283
126 *2:214 *2:215 0.497132
127 *2:213 *2:214 1.4
128 *2:212 *2:213 1.98861
129 *2:210 *2:212 0.124288
130 *2:208 *490:RN 1.4
131 *2:208 *2:210 0.74573
132 *2:207 *514:RN 1.4
133 *2:207 *2:208 1.11859
134 *2:206 *2:207 0.248577
135 *2:204 *2:206 0.124288
136 *2:200 *491:RN 1.4
137 *2:200 *2:204 0.870018
138 *2:199 *515:RN 1.4
139 *2:197 *492:RN 1.4
140 *2:196 *516:RN 1.4
141 *2:195 *2:200 1.74004
142 *2:195 *2:199 1.61575
143 *2:193 *517:RN 1.4
144 *2:192 *2:197 0.621441
145 *2:192 *2:196 0.497153
146 *2:191 *2:195 1.4
147 *2:189 *493:RN 1.4
148 *2:188 *2:193 0.497153
149 *2:187 *2:192 1.4
150 *2:187 *2:191 0.994264
151 *2:186 *518:RN 1.4
152 *2:185 *2:189 0.621441
153 *2:184 *2:188 1.4
154 *2:184 *2:187 4.10134
155 *2:183 *2:186 1.61575
156 *2:182 *2:185 1.4
157 *2:182 *2:184 1.24283
158 *2:180 *2:183 1.4
159 *2:180 *2:182 1.73996
160 *2:178 *519:RN 1.4
161 *2:177 *2:180 0.124286
162 *2:175 *494:RN 1.4
163 *2:174 *2:178 1.36711
164 *2:173 *2:177 0.372866
165 *2:172 *510:RN 1.4
166 *2:171 *2:175 0.869981
167 *2:170 *2:174 1.4
168 *2:170 *2:173 0.124289
169 *2:169 *2:172 0.248566
170 *2:168 *2:171 1.4
171 *2:168 *2:170 0.870021
172 *2:167 *2:169 1.4
173 *2:167 *2:168 1.24289
174 *2:166 *2:167 0.372866
175 *2:165 *2:166 0.870021
176 *2:163 *2:165 1.74004
177 *2:162 *495:RN 1.4
178 *2:159 *2:163 1.4
179 *2:157 *2:162 0.372849
180 *2:156 *502:RN 1.4
181 *2:155 *509:RN 1.4
182 *2:154 *2:159 1.4914
183 *2:154 *2 3.10712
184 *2:152 *2:157 0.869981
185 *2:150 *2:156 0.124283
186 *2:149 *2:155 0.621415
187 *2:148 *2:154 1.4
188 *2:147 *503:RN 1.4
189 *2:146 *2:152 0.248566
190 *2:145 *501:RN 1.4
191 *2:144 *2:150 1.73996
192 *2:143 *2:149 1.4
193 *2:143 *2:148 0.99431
194 *2:141 *2:147 0.372849
195 *2:141 *2:146 0.372849
196 *2:139 *2:145 0.497132
197 *2:138 *2:144 1.4
198 *2:138 *2:143 0.621444
199 *2:137 *508:RN 1.4
200 *2:137 *2:141 0.745698
201 *2:136 *500:RN 1.4
202 *2:135 *2:139 1.4
203 *2:135 *2:138 1.24289
204 *2:134 *2:137 1.11855
205 *2:134 *2:136 0.248566
206 *2:133 *2:135 0.497155
207 *2:132 *2:134 0.621415
208 *2:131 *2:133 0.870021
209 *2:130 *2:132 1.4
210 *2:130 *2:131 1.61575
211 *2:129 *2:130 0.621444
212 *2:127 *2:129 0.248578
213 *2:126 *507:RN 1.4
214 *2:125 *2:127 2.85864
215 *2:124 *2:126 0.621413
216 *2:123 *2:125 0.248578
217 *2:121 *2:124 1.4
218 *2:121 *2:123 0.372866
219 *2:120 *499:RN 1.4
220 *2:119 *2:121 1.24289
221 *2:118 *2:120 0.372848
222 *2:117 *2:119 0.124289
223 *2:116 *2:118 1.4
224 *2:116 *2:117 0.621444
225 *2:115 *2:116 2.2372
226 *2:113 *2:115 1.4
227 *2:112 *498:RN 1.4
228 *2:112 *2:113 0.745696
229 *2:110 *2:112 0.497131
230 *2:108 *497:RN 1.4
231 *2:106 *2:110 0.124283
232 *2:105 *505:RN 1.4
233 *2:105 *2:108 1.11854
234 *2:104 *506:RN 1.4
235 *2:104 *2:106 0.621413
236 *2:103 *2:105 0.497131
237 *2:102 *2:104 0.869979
238 *2:101 *2:103 1.4
239 *2:99 *2:102 0.248565
240 *2:98 *2:101 0.99431
241 *2:97 *504:RN 1.4
242 *2:97 *2:99 0.248565
243 *2:96 *2:98 1.4
244 *2:96 *2:97 0.621413
245 *2:92 *2:96 0.124283
246 *2:91 *526:RN 1.4
247 *2:90 *535:RN 1.4
248 *2:89 *536:RN 1.4
249 *2:88 *2:92 0.248565
250 *2:87 *2:91 1.11855
251 *2:87 *2:90 0.248567
252 *2:86 *2:89 2.2371
253 *2:84 *2:88 0.124283
254 *2:82 *2:87 0.37285
255 *2:82 *2:86 0.124283
256 *2:81 *527:RN 1.4
257 *2:80 *2:84 2.11281
258 *2:79 *531:RN 1.4
259 *2:79 *2:82 1.11855
260 *2:78 *2:81 0.7457
261 *2:74 *2:80 0.124283
262 *2:73 *2:79 0.37285
263 *2:72 *2:78 1.4
264 *2:71 *523:RN 1.4
265 *2:71 *2:76 0.220714
266 *2:70 *496:RN 1.4
267 *2:70 *2:74 0.372848
268 *2:69 *2:73 1.4
269 *2:69 *2:72 0.497132
270 *2:68 *2:71 1.4
271 *2:67 *2:70 0.869979
272 *2:66 *2:69 5.71718
273 *2:65 *2:68 1.61575
274 *2:64 *2:67 0.124283
275 *2:62 *2:66 1.4
276 *2:61 *2:65 1.4
277 *2:61 *2:64 1.36711
278 *2:60 *525:RN 1.4
279 *2:60 *2:62 0.372866
280 *2:58 *2:61 0.248565
281 *2:57 *2:60 1.36718
282 *2:56 *533:RN 1.4
283 *2:55 *2:58 0.124283
284 *2:53 *2:57 1.4
285 *2:51 *2:56 1.1186
286 *2:51 *2:55 0.870006
287 *2:50 *524:RN 1.4
288 *2:49 *2:53 0.497155
289 *2:47 *532:RN 1.4
290 *2:47 *2:51 0.497155
291 *2:46 *2:50 0.497155
292 *2:45 *2:49 0.248578
293 *2:44 *534:RN 1.4
294 *2:43 *2:47 2.73435
295 *2:42 *2:46 1.4
296 *2:42 *2:45 0.99431
297 *2:41 *2:44 0.621444
298 *2:41 *2:43 0.124289
299 *2:39 *2:42 2.11291
300 *2:39 *2:41 1.4
301 *2:38 *540:RN 1.4
302 *2:37 *2:39 1.98862
303 *2:36 *2:38 0.497155
304 *2:36 *2:37 1.4
305 *2:35 *2:36 0.372866
306 *2:34 *2:35 0.248578
307 *2:33 *2:34 1.61575
308 *2:31 *2:33 0.248578
309 *2:29 *541:RN 1.4
310 *2:29 *2:31 0.870021
311 *2:28 *542:RN 1.4
312 *2:28 *2:29 3.3558
313 *2:27 *2:28 4.22582
314 *2:26 *2:27 0.124289
315 *2:25 *2:26 1.1186
316 *2:21 *2:25 0.124289
317 *2:18 *548:RN 1.4
318 *2:18 *2:23 0.212143
319 *2:16 *543:RN 1.4
320 *2:16 *2:21 1.36718
321 *2:15 *547:RN 1.4
322 *2:15 *2:19 0.212143
323 *2:14 *2:18 0.124283
324 *2:12 *544:RN 1.4
325 *2:12 *2:16 2.2372
326 *2:11 *2:15 0.124289
327 *2:10 *2:14 1.4
328 *2:9 *545:RN 1.4
329 *2:9 *2:12 1.1186
330 *2:8 *2:11 1.4
331 *2:8 *2:10 4.47432
332 *2:7 *2:9 1.1186
333 *2:6 *2:8 3.85295
334 *2:5 *2:7 1.4
335 *2:4 *2:6 0.124289
336 *2:2 *2:5 1.98862
337 *2:2 *2:4 0.248578
338 *2:1 *546:RN 1.4
339 *2:1 *2:2 1.4
340 *2:0 *2:1 0.220714
*END

*D_NET *3 0.00234387

*CONN
*I *665:A I *C 58.145 61.335 *L 0.00175 *D AND4X1
*P *3 I *C 58.145 80.91 *L 0

*CAP
1 *3:1 0.000266067
2 *3:2 0.000299325
3 *3:3 0.000465617
4 *3:4 0.000448988
5 *3:5 9.97751e-05
6 *3:6 0.000133033
7 *3:7 0.000340475
8 *3 0.000290587

*RES
1 *3:7 *3 2.36144
2 *3:6 *3:7 0.372865
3 *3:5 *3:6 0.621441
4 *3:4 *3:5 0.124288
5 *3:3 *3:4 3.2315
6 *3:2 *3:3 0.248577
7 *3:1 *3:2 1.98861
8 *665:A *3:1 1.4
*END

*D_NET *4 0.000370704

*CONN
*I *592:B I *C 52.055 76.995 *L 0.00184 *D MX2X1
*P *4 I *C 52.055 80.91 *L 0

*CAP
1 *4:1 0.000185352
2 *4 0.000185352

*RES
1 *4:1 *4 1.49144
2 *592:B *4:1 1.4
*END

*D_NET *5 0.000348366

*CONN
*I *623:B I *C 57.565 76.995 *L 0.00184 *D MX2X1
*P *5 I *C 57.565 80.91 *L 0

*CAP
1 *5:1 0.000174183
2 *5 0.000174183

*RES
1 *5:1 *5 1.49143
2 *623:B *5:1 1.4
*END

*D_NET *6 0.000951014

*CONN
*I *620:B I *C 68.005 74.385 *L 0.00184 *D MX2X1
*P *6 I *C 71.485 80.91 *L 0

*CAP
1 *6:1 0.000310599
2 *6:2 0.000310599
3 *6:3 0.000151661
4 *6:4 0.000151661
5 *6:5 1.32469e-05
6 *6 1.32469e-05

*RES
1 *6:5 *6 0.124284
2 *6:4 *6:5 1.4
3 *6:3 *6:4 1.49146
4 *6:2 *6:3 1.4
5 *6:1 *6:2 2.48574
6 *620:B *6:1 1.4
*END

*D_NET *7 0.000550581

*CONN
*P *7 I *C 74.385 80.91 *L 0
*I *618:B I *C 76.705 76.995 *L 0.00184 *D MX2X1

*CAP
1 *7:0 0.000101107
2 *7:1 1.32469e-05
3 *7:2 0.000101107
4 *7 1.32469e-05
5 *7:4 0.000160936
6 *7:5 0.000160936

*RES
1 *7:5 *618:B 1.4
2 *7:4 *7:5 1.36714
3 *7:2 *7:4 1.4
4 *7:1 *7 0.124284
5 *7:0 *7:2 0.99431
6 *7:0 *7:1 1.4
*END

*D_NET *8 0.000949522

*CONN
*I *616:B I *C 77.865 71.775 *L 0.00184 *D MX2X1
*P *8 I *C 82.94 66.845 *L 0

*CAP
1 *8:0 0.000176216
2 *8:1 0.000199286
3 *8:2 0.000116404
4 *8:3 0.000139474
5 *8:5 0.000159071
6 *8 0.000159071

*RES
1 *8:5 *8 1.49139
2 *8:3 *8:5 1.4
3 *8:2 *616:B 1.4
4 *8:1 *8:3 1.24288
5 *8:0 *8:2 0.870018
6 *8:0 *8:1 0.497153
*END

*D_NET *9 0.00102443

*CONN
*P *9 I *C 82.94 55.535 *L 0
*I *609:B I *C 75.835 58.725 *L 0.00184 *D MX2X1

*CAP
1 *9:0 0.000182921
2 *9:1 0.000329293
3 *9:2 0.000182921
4 *9 0.000329293

*RES
1 *9:2 *609:B 1.4
2 *9:1 *9 2.8585
3 *9:0 *9:2 1.36717
4 *9:0 *9:1 1.4
*END

*D_NET *10 0.000566428

*CONN
*I *612:B I *C 78.735 56.115 *L 0.00184 *D MX2X1
*P *10 I *C 82.94 53.795 *L 0

*CAP
1 *10:0 9.76316e-05
2 *10:1 3.97677e-05
3 *10:2 9.76316e-05
4 *10:3 5.30236e-05
5 *10:5 0.000145815
6 *10 0.000132559

*RES
1 *10:5 *10 1.24283
2 *10:3 *10:5 0.124283
3 *10:2 *612:B 1.4
4 *10:1 *10:3 0.372848
5 *10:0 *10:2 0.870016
6 *10:0 *10:1 1.4
*END

*D_NET *11 0.000501134

*CONN
*I *610:B I *C 79.605 50.895 *L 0.00184 *D MX2X1
*P *11 I *C 82.94 53.215 *L 0

*CAP
1 *11:1 7.54746e-05
2 *11:2 8.9422e-05
3 *11:3 5.57895e-05
4 *11:4 4.18421e-05
5 *11:5 0.000119303
6 *11 0.000119303

*RES
1 *11:5 *11 1.11854
2 *11:4 *11:5 1.4
3 *11:3 *11:4 0.372864
4 *11:2 *11:3 0.124288
5 *11:1 *11:2 0.621418
6 *610:B *11:1 1.4
*END

*D_NET *12 0.000370704

*CONN
*I *601:B I *C 39.295 76.995 *L 0.00184 *D MX2X1
*P *12 I *C 39.295 80.91 *L 0

*CAP
1 *12:1 0.000185352
2 *12 0.000185352

*RES
1 *12:1 *12 1.49144
2 *601:B *12:1 1.4
*END

*D_NET *13 0.00163909

*CONN
*P *13 I *C 37.555 80.91 *L 0
*I *600:B I *C 37.555 66.555 *L 0.00184 *D MX2X1

*CAP
1 *13:0 0.000367166
2 *13:1 0.000367166
3 *13:2 0.000283719
4 *13:3 0.000185352
5 *13:4 0.00026703
6 *13 0.000168663

*RES
1 *13:4 *600:B 1.4
2 *13:3 *13 1.36716
3 *13:2 *13:4 1.98853
4 *13:1 *13:3 0.124283
5 *13:0 *13:2 0.124283
6 *13:0 *13:1 2.60994
*END

*D_NET *14 0.000370704

*CONN
*I *599:B I *C 30.015 76.995 *L 0.00184 *D MX2X1
*P *14 I *C 30.015 80.91 *L 0

*CAP
1 *14:1 0.000185352
2 *14 0.000185352

*RES
1 *14:1 *14 1.49144
2 *599:B *14:1 1.4
*END

*D_NET *15 0.000320902

*CONN
*I *598:B I *C 16.965 76.995 *L 0.00184 *D MX2X1
*P *15 I *C 16.965 80.91 *L 0

*CAP
1 *15:1 0.000160451
2 *15 0.000160451

*RES
1 *15:1 *15 1.49141
2 *598:B *15:1 1.4
*END

*D_NET *16 0.000776309

*CONN
*I *590:B I *C 9.715 74.385 *L 0.00184 *D MX2X1
*P *16 I *C 11.455 80.91 *L 0

*CAP
1 *16:1 9.40254e-05
2 *16:2 0.000156709
3 *16:3 0.000198202
4 *16:4 0.0001595
5 *16:5 9.59272e-05
6 *16 7.19454e-05

*RES
1 *16:5 *16 0.745714
2 *16:4 *16:5 0.248571
3 *16:3 *16:4 1.11855
4 *16:2 *16:3 0.497131
5 *16:1 *16:2 0.745696
6 *590:B *16:1 1.4
*END

*D_NET *17 0.00122104

*CONN
*P *17 I *C 0 65.975 *L 0
*I *595:B I *C 4.495 58.725 *L 0.00184 *D MX2X1

*CAP
1 *17 0.000218747
2 *17:1 0.000218747
3 *17:2 0.000391773
4 *17:3 0.000391773

*RES
1 *17:3 *595:B 1.4
2 *17:2 *17:3 3.10707
3 *17:1 *17:2 1.4
4 *17 *17:1 1.74004
*END

*D_NET *18 0.00175283

*CONN
*P *18 I *C 0 64.815 *L 0
*I *594:B I *C 7.395 56.115 *L 0.00184 *D MX2X1

*CAP
1 *18 7.81239e-05
2 *18:1 9.37487e-05
3 *18:2 0.000312496
4 *18:3 0.000296871
5 *18:4 4.70127e-05
6 *18:5 6.26836e-05
7 *18:6 0.000156709
8 *18:7 0.000156709
9 *18:8 0.000282076
10 *18:9 0.000266405

*RES
1 *18:9 *594:B 1.4
2 *18:8 *18:9 2.11281
3 *18:7 *18:8 0.124283
4 *18:6 *18:7 1.11854
5 *18:5 *18:6 0.124283
6 *18:4 *18:5 0.372848
7 *18:3 *18:4 1.4
8 *18:2 *18:3 2.36149
9 *18:1 *18:2 0.124289
10 *18 *18:1 0.621444
*END

*D_NET *19 0.000763291

*CONN
*P *19 I *C 28.855 80.91 *L 0
*I *593:B I *C 28.565 74.385 *L 0.00184 *D MX2X1

*CAP
1 *19:0 0.000252109
2 *19:1 0.00026482
3 *19:2 0.000116825
4 *19 2.94e-05
5 *19:4 0.000100136

*RES
1 *19:4 *593:B 1.4
2 *19:2 *19:4 0.745698
3 *19:1 *19 0.248578
4 *19:0 *19:2 0.124283
5 *19:0 *19:1 1.86429
*END

*D_NET *20 0.00146301

*CONN
*I *611:B I *C 46.545 71.775 *L 0.00184 *D MX2X1
*P *20 I *C 51.475 80.91 *L 0

*CAP
1 *20:1 8.34468e-05
2 *20:2 0.000100136
3 *20:3 0.00025034
4 *20:4 0.00025034
5 *20:5 0.000170652
6 *20:6 0.000153963
7 *20:7 0.000212365
8 *20:8 0.000212365
9 *20:9 1.47e-05
10 *20 1.47e-05

*RES
1 *20:9 *20 0.124289
2 *20:8 *20:9 1.4
3 *20:7 *20:8 2.11284
4 *20:6 *20:7 1.4
5 *20:5 *20:6 1.24287
6 *20:4 *20:5 0.124283
7 *20:3 *20:4 1.73996
8 *20:2 *20:3 0.124283
9 *20:1 *20:2 0.621415
10 *611:B *20:1 1.4
*END

*D_NET *21 0.000671112

*CONN
*I *608:B I *C 42.195 74.385 *L 0.00184 *D MX2X1
*P *21 I *C 42.195 80.91 *L 0

*CAP
1 *21:1 0.000335556
2 *21 0.000335556

*RES
1 *21:1 *21 2.60999
2 *608:B *21:1 1.4
*END

*D_NET *22 0.000547104

*CONN
*P *22 I *C 30.885 80.91 *L 0
*I *607:B I *C 32.625 76.995 *L 0.00184 *D MX2X1

*CAP
1 *22 8.82e-05
2 *22:1 0.000273552
3 *22:2 0.000185352

*RES
1 *22:2 *607:B 1.4
2 *22:1 *22:2 1.49144
3 *22 *22:1 0.745732
*END

*D_NET *23 0.000982959

*CONN
*P *23 I *C 17.255 80.91 *L 0
*I *606:B I *C 21.895 74.385 *L 0.00184 *D MX2X1

*CAP
1 *23:0 0.00018999
2 *23:1 1.19909e-05
3 *23:2 0.00018999
4 *23 1.19909e-05
5 *23:4 0.000289498
6 *23:5 0.000289498

*RES
1 *23:5 *606:B 1.4
2 *23:4 *23:5 2.48567
3 *23:2 *23:4 1.4
4 *23:1 *23 0.124286
5 *23:0 *23:2 1.98857
6 *23:0 *23:1 1.4
*END

*D_NET *24 0.000344884

*CONN
*P *24 I *C 11.745 80.91 *L 0
*I *605:B I *C 11.455 76.995 *L 0.00184 *D MX2X1

*CAP
1 *24:2 4.79636e-05
2 *24:3 3.59727e-05
3 *24 4.79636e-05
4 *24:5 4.79636e-05
5 *24:6 8.85054e-05
6 *24:7 7.65145e-05

*RES
1 *24:7 *605:B 1.4
2 *24:6 *24:7 0.621415
3 *24:5 *24:6 0.124286
4 *24:3 *24:5 0.372857
5 *24:2 *24 0.497143
6 *24:1 *24:3 1.4
7 *24:1 *24:2 1.4
8 *24:0 *24:1 0.220714
*END

*D_NET *25 0.000907529

*CONN
*P *25 I *C 0 65.105 *L 0
*I *604:B I *C 4.785 69.165 *L 0.00184 *D MX2X1

*CAP
1 *25 6.24991e-05
2 *25:1 6.24991e-05
3 *25:2 0.00017238
4 *25:3 0.00017238
5 *25:4 0.000171873
6 *25:5 0.000171873
7 *25:6 4.70127e-05
8 *25:7 4.70127e-05

*RES
1 *25:7 *604:B 1.4
2 *25:6 *25:7 0.372848
3 *25:5 *25:6 1.4
4 *25:4 *25:5 1.36718
5 *25:3 *25:4 1.4
6 *25:2 *25:3 1.36711
7 *25:1 *25:2 1.4
8 *25 *25:1 0.497155
*END

*D_NET *26 0.00146873

*CONN
*I *603:B I *C 14.065 63.945 *L 0.00184 *D MX2X1
*P *26 I *C 0 63.945 *L 0

*CAP
1 *26:2 0.000734364
2 *26 0.000734364

*RES
1 *26:2 *26 5.84157
2 *26:1 *603:B 1.4
3 *26:1 *26:2 1.4
4 *26:0 *26:1 0.220714
*END

*D_NET *27 0.00200927

*CONN
*I *602:B I *C 23.055 69.165 *L 0.00184 *D MX2X1
*P *27 I *C 27.985 80.91 *L 0

*CAP
1 *27:1 6.26836e-05
2 *27:2 6.26836e-05
3 *27:3 0.000259896
4 *27:4 0.000259896
5 *27:5 1.66894e-05
6 *27:6 5.00681e-05
7 *27:7 5.00681e-05
8 *27:8 0.000166894
9 *27:9 0.000166894
10 *27:10 0.000133515
11 *27:11 0.000150204
12 *27:12 0.000258078
13 *27:13 0.000254099
14 *27:14 7.35e-05
15 *27 4.41e-05

*RES
1 *27:14 *27 0.372866
2 *27:13 *27:14 0.248578
3 *27:12 *27:13 1.73999
4 *27:11 *27:12 0.248566
5 *27:10 *27:11 0.869981
6 *27:9 *27:10 0.124283
7 *27:8 *27:9 1.11855
8 *27:7 *27:8 0.124283
9 *27:6 *27:7 0.248566
10 *27:5 *27:6 0.124283
11 *27:4 *27:5 1.4
12 *27:3 *27:4 1.98862
13 *27:2 *27:3 1.4
14 *27:1 *27:2 0.497131
15 *602:B *27:1 1.4
*END

*D_NET *28 0.000348366

*CONN
*I *624:B I *C 54.955 76.995 *L 0.00184 *D MX2X1
*P *28 I *C 54.955 80.91 *L 0

*CAP
1 *28:1 0.000174183
2 *28 0.000174183

*RES
1 *28:1 *28 1.49143
2 *624:B *28:1 1.4
*END

*D_NET *29 0.000905729

*CONN
*P *29 I *C 59.015 80.91 *L 0
*I *622:B I *C 61.335 74.385 *L 0.00184 *D MX2X1

*CAP
1 *29:0 0.000129019
2 *29:1 0.000224071
3 *29:2 0.000129019
4 *29 0.000224071
5 *29:4 9.97751e-05
6 *29:5 9.97751e-05

*RES
1 *29:5 *622:B 1.4
2 *29:4 *29:5 0.74573
3 *29:2 *29:4 1.4
4 *29:1 *29 1.86429
5 *29:0 *29:2 0.994264
6 *29:0 *29:1 1.4
*END

*D_NET *30 0.000348366

*CONN
*P *30 I *C 71.485 80.91 *L 0
*I *621:B I *C 71.485 76.995 *L 0.00184 *D MX2X1

*CAP
1 *30:2 9.27284e-05
2 *30:3 8.14548e-05
3 *30 9.27284e-05
4 *30:5 8.14548e-05

*RES
1 *30:5 *621:B 1.4
2 *30:3 *30:5 0.621439
3 *30:2 *30 0.869988
4 *30:1 *30:3 1.4
5 *30:1 *30:2 1.4
6 *30:0 *30:1 0.220714
*END

*D_NET *31 0.000348366

*CONN
*P *31 I *C 74.095 80.91 *L 0
*I *619:B I *C 74.095 76.995 *L 0.00184 *D MX2X1

*CAP
1 *31:2 9.27284e-05
2 *31:3 8.14548e-05
3 *31 9.27284e-05
4 *31:5 8.14548e-05

*RES
1 *31:5 *619:B 1.4
2 *31:3 *31:5 0.621439
3 *31:2 *31 0.869988
4 *31:1 *31:3 1.4
5 *31:1 *31:2 1.4
6 *31:0 *31:1 0.220714
*END

*D_NET *32 0.00069887

*CONN
*I *617:B I *C 77.865 69.165 *L 0.00184 *D MX2X1
*P *32 I *C 82.94 66.845 *L 0

*CAP
1 *32:4 0.000133033
2 *32:6 0.000133033
3 *32:7 0.000216401
4 *32 0.000216401

*RES
1 *32:7 *32 1.98852
2 *32:6 *32:7 1.4
3 *32:4 *32:6 0.994306
4 *32:2 *32:5 0.220714
5 *32:2 *32:4 1.4
6 *32:1 *617:B 1.4
7 *32:1 *32:2 1.4
8 *32:0 *32:1 0.220714
*END

*D_NET *33 0.000513405

*CONN
*I *615:B I *C 79.025 53.505 *L 0.00184 *D MX2X1
*P *33 I *C 82.94 55.535 *L 0

*CAP
1 *33:4 9.76316e-05
2 *33:6 9.76316e-05
3 *33:7 0.000159071
4 *33 0.000159071

*RES
1 *33:7 *33 1.49139
2 *33:6 *33:7 1.4
3 *33:4 *33:6 0.870016
4 *33:2 *33:5 0.220714
5 *33:2 *33:4 1.4
6 *33:1 *615:B 1.4
7 *33:1 *33:2 1.4
8 *33:0 *33:1 0.220714
*END

*D_NET *34 0.000859139

*CONN
*I *614:B I *C 76.125 56.115 *L 0.00184 *D MX2X1
*P *34 I *C 82.94 54.085 *L 0

*CAP
1 *34:2 3.32584e-05
2 *34:3 8.31459e-05
3 *34:4 3.32584e-05
4 *34:5 8.31459e-05
5 *34:6 0.000313165
6 *34 0.000313165

*RES
1 *34:6 *34 2.73422
2 *34:5 *614:B 1.4
3 *34:4 *34:6 1.4
4 *34:3 *34:5 0.621441
5 *34:2 *34:4 0.248577
6 *34:1 *34:3 1.4
7 *34:1 *34:2 1.4
8 *34:0 *34:1 0.220714
*END

*D_NET *35 0.00121093

*CONN
*P *35 I *C 82.94 56.405 *L 0
*I *613:B I *C 73.225 58.725 *L 0.00184 *D MX2X1

*CAP
1 *35:0 0.000538948
2 *35 0.000474439
3 *35:2 6.45093e-05
4 *35:3 6.65167e-05
5 *35:4 6.65167e-05

*RES
1 *35:4 *613:B 1.4
2 *35:3 *35:4 0.497153
3 *35:2 *35:3 1.4
4 *35:0 *35:2 0.497132
5 *35:0 *35 3.97705
*END

*D_NET *36 0.00158721

*CONN
*I *639:B I *C 70.035 37.845 *L 0.00184 *D MX2X1
*I *557:Q O *C 70.905 37.265 *L 0 *D SDFFRHQX1
*P *36 O *C 82.94 39.005 *L 0
*P *485 O *C 82.94 39.585 *L 0

*CAP
1 *36:1 3.47383e-05
2 *36:2 8.68457e-05
3 *36:3 8.68457e-05
4 *36:5 3.47383e-05
5 *36:6 0.000281653
6 *36:7 0.00029822
7 *36:8 0.000203989
8 *36:9 0.000200734
9 *36:10 0.000159754
10 *36 0.000173067
11 *485 2.66257e-05

*RES
1 *36 *485 0.248567
2 *36:10 *36 1.36712
3 *36:9 *36:10 0.124284
4 *36:8 *36:9 1.4914
5 *36:7 *36:8 0.124283
6 *36:6 *36:7 2.11281
7 *36:5 *36:6 1.4
8 *36:3 *36:5 0.248566
9 *36:3 *557:Q 1.4
10 *36:2 *36:3 0.372849
11 *36:1 *36:2 0.248566
12 *639:B *36:1 1.4
*END

*D_NET *37 0.00177904

*CONN
*I *556:Q O *C 70.905 35.815 *L 0 *D SDFFRHQX1
*I *625:B I *C 78.445 32.625 *L 0.00184 *D MX2X1
*P *37 O *C 82.94 37.845 *L 0
*I *557:SI I *C 79.315 37.845 *L 0.00276 *D SDFFRHQX1

*CAP
1 *37:3 0.000429135
2 *37:4 0.000429135
3 *37:5 0.000274004
4 *37:6 0.000167447
5 *37:7 0.000106557
6 *37:8 3.99386e-05
7 *37:10 0.00018638
8 *37 0.000146441

*RES
1 *37:12 *557:SI 1.4
2 *37:12 *37:13 0.220714
3 *37:10 *37:12 1.4
4 *37:10 *37 1.36712
5 *37:8 *37:10 0.372851
6 *37:7 *625:B 1.4
7 *37:6 *37:8 1.4
8 *37:5 *37:7 0.869982
9 *37:5 *37:6 1.36711
10 *37:4 *37:5 1.4
11 *37:3 *37:4 3.23136
12 *37:1 *37:3 1.4
13 *37:1 *556:Q 1.4
14 *37:0 *37:1 0.220714
*END

*D_NET *38 0.00285474

*CONN
*I *555:Q O *C 70.905 20.155 *L 0 *D SDFFRHQX1
*I *638:B I *C 78.445 24.795 *L 0.00184 *D MX2X1
*P *38 O *C 82.94 27.695 *L 0
*I *556:SI I *C 79.315 35.235 *L 0.00276 *D SDFFRHQX1

*CAP
1 *38:1 0.000195942
2 *38:2 0.000195942
3 *38:3 0.000415276
4 *38:4 0.000415276
5 *38:5 4.92216e-05
6 *38:6 0.000188319
7 *38:7 0.000367434
8 *38:9 0.000243559
9 *38:10 0.00018638
10 *38:11 9.13346e-05
11 *38 0.00018638
12 *38:13 0.000106557
13 *38:14 0.000121779
14 *38:15 9.13346e-05

*RES
1 *38:15 *556:SI 1.4
2 *38:14 *38:15 0.745699
3 *38:13 *38:14 0.248566
4 *38:11 *38:13 0.621415
5 *38:10 *38 1.73997
6 *38:9 *38:11 0.124283
7 *38:7 *38:10 1.4
8 *38:7 *38:9 1.86425
9 *38:6 *638:B 1.4
10 *38:6 *38:7 1.24286
11 *38:5 *38:6 0.497155
12 *38:4 *38:5 1.4
13 *38:3 *38:4 3.23136
14 *38:2 *38:3 1.4
15 *38:1 *38:2 1.49146
16 *555:Q *38:1 1.4
*END

*D_NET *39 0.00174371

*CONN
*I *554:Q O *C 70.905 14.935 *L 0 *D SDFFRHQX1
*P *39 O *C 82.94 17.835 *L 0
*I *636:B I *C 76.995 16.965 *L 0.00184 *D MX2X1
*I *555:SI I *C 79.315 19.575 *L 0.00276 *D SDFFRHQX1

*CAP
1 *39:1 0.000163285
2 *39:2 0.000163285
3 *39:3 0.000336978
4 *39:4 0.000451807
5 *39:5 0.000248773
6 *39:6 4.89854e-05
7 *39 0.000133944
8 *39:8 7.38324e-05
9 *39:9 4.89854e-05
10 *39:10 7.38324e-05

*RES
1 *39:10 *555:SI 1.4
2 *39:9 *636:B 1.4
3 *39:8 *39:10 0.745732
4 *39:6 *39:9 0.372866
5 *39:5 *39:8 1.4
6 *39:5 *39 1.36718
7 *39:4 *39:6 1.4
8 *39:4 *39:5 0.994284
9 *39:3 *39:4 2.60994
10 *39:2 *39:3 1.4
11 *39:1 *39:2 1.24289
12 *554:Q *39:1 1.4
*END

*D_NET *40 0.00164621

*CONN
*I *635:B I *C 76.415 11.745 *L 0.00184 *D MX2X1
*P *40 O *C 82.94 11.455 *L 0
*I *554:SI I *C 79.315 14.355 *L 0.00276 *D SDFFRHQX1
*I *553:Q O *C 70.905 9.715 *L 0 *D SDFFRHQX1

*CAP
1 *40:1 1.63285e-05
2 *40:2 1.63285e-05
3 *40:4 0.000451807
4 *40:5 0.000280866
5 *40:6 0.000304885
6 *40 0.000133944
7 *40:8 0.000123054
8 *40:9 9.79709e-05
9 *40:10 0.000123054
10 *40:11 9.79709e-05

*RES
1 *40:11 *553:Q 1.4
2 *40:10 *554:SI 1.4
3 *40:9 *40:11 0.745732
4 *40:8 *40:10 1.24289
5 *40:6 *40:9 1.4
6 *40:5 *40:8 1.4
7 *40:5 *40 1.36718
8 *40:4 *40:6 2.36138
9 *40:4 *40:5 1.24285
10 *40:2 *40:4 1.4
11 *40:1 *635:B 1.4
12 *40:1 *40:2 0.124289
13 *40:0 *40:1 0.212143
*END

*D_NET *41 0.00248829

*CONN
*I *552:Q O *C 69.745 5.945 *L 0 *D SDFFRHQX1
*P *41 O *C 74.675 0 *L 0
*I *629:B I *C 76.995 3.915 *L 0.00184 *D MX2X1
*I *553:SI I *C 79.315 9.135 *L 0.00276 *D SDFFRHQX1

*CAP
1 *41:0 4.89854e-05
2 *41:1 0.000163285
3 *41:2 0.000272792
4 *41:3 0.000163285
5 *41:4 0.000401165
6 *41:5 4.89854e-05
7 *41:6 0.000243201
8 *41:7 9.79709e-05
9 *41:9 0.000114828
10 *41:10 9.79709e-05
11 *41 9.79709e-05
12 *41:12 0.000110749
13 *41:13 9.79709e-05
14 *41:14 0.000123054
15 *41:16 0.00015997
16 *41:17 0.00015997
17 *41:18 4.92216e-05
18 *41:19 3.69162e-05

*RES
1 *41:19 *553:SI 1.4
2 *41:18 *41:19 0.372866
3 *41:17 *41:18 0.124289
4 *41:16 *41:17 1.49146
5 *41:14 *41:16 0.124289
6 *41:13 *629:B 1.4
7 *41:12 *41:14 1.1186
8 *41:10 *41:13 0.745732
9 *41:9 *41:12 1.4
10 *41:7 *41 0.745732
11 *41:6 *41:10 1.4
12 *41:6 *41:9 0.994284
13 *41:5 *552:Q 1.4
14 *41:4 *41:7 1.4
15 *41:4 *41:6 0.994264
16 *41:3 *41:5 0.372866
17 *41:2 *41:4 2.11281
18 *41:1 *41:3 0.870021
19 *41:0 *41:2 1.4
20 *41:0 *41:1 0.372866
*END

*D_NET *42 0.00271894

*CONN
*I *551:Q O *C 65.685 4.495 *L 0 *D SDFFRHQX1
*P *42 O *C 71.775 0 *L 0
*I *628:B I *C 70.035 9.135 *L 0.00184 *D MX2X1
*I *552:SI I *C 78.155 6.525 *L 0.00276 *D SDFFRHQX1

*CAP
1 *42:3 4.81398e-05
2 *42:4 0.000160466
3 *42:5 0.000192559
4 *42:6 0.000176512
5 *42:7 0.000449305
6 *42:8 0.00032657
7 *42:9 0.000353025
8 *42:10 0.000163285
9 *42:11 0.00032657
10 *42:12 0.000179613
11 *42 0.000163285
12 *42:15 0.000179613

*RES
1 *42:15 *552:SI 1.4
2 *42:12 *42:15 1.36718
3 *42:11 *628:B 1.4
4 *42:10 *42 1.24289
5 *42:9 *42:12 1.4
6 *42:8 *42:11 2.48577
7 *42:7 *42:10 1.4
8 *42:7 *42:9 2.73423
9 *42:6 *42:8 1.4
10 *42:6 *42:7 0.745698
11 *42:5 *42:6 0.621415
12 *42:4 *42:5 0.869981
13 *42:3 *42:4 0.372849
14 *42:1 *42:3 1.4
15 *42:1 *551:Q 1.4
16 *42:0 *42:1 0.220714
*END

*D_NET *43 0.00381349

*CONN
*I *550:Q O *C 53.795 4.495 *L 0 *D SDFFRHQX1
*P *43 O *C 62.495 0 *L 0
*I *551:SI I *C 74.095 3.915 *L 0.00276 *D SDFFRHQX1
*I *627:B I *C 59.015 9.135 *L 0.00184 *D MX2X1

*CAP
1 *43:0 0.000336978
2 *43:1 1.60466e-05
3 *43:2 0.000481398
4 *43:3 9.79709e-05
5 *43:4 0.00080233
6 *43:5 0.000342898
7 *43:6 9.79709e-05
8 *43:7 0.000641864
9 *43:8 4.89854e-05
10 *43:9 0.000375555
11 *43:11 0.000146956
12 *43 4.89854e-05
13 *43:13 0.000130628
14 *43:14 0.000146956
15 *43:15 9.79709e-05

*RES
1 *43:15 *627:B 1.4
2 *43:14 *551:SI 1.4
3 *43:13 *43:15 0.745732
4 *43:11 *43:14 1.1186
5 *43:9 *43:13 0.248577
6 *43:8 *43 0.372866
7 *43:7 *43:11 1.4
8 *43:6 *550:Q 1.4
9 *43:5 *43:9 2.61006
10 *43:4 *43:8 1.4
11 *43:4 *43:7 4.97132
12 *43:3 *43:6 0.745732
13 *43:2 *43:5 1.4
14 *43:2 *43:4 1.24283
15 *43:1 *43:3 1.4
16 *43:0 *43:2 2.48566
17 *43:0 *43:1 0.124283
*END

*D_NET *44 0.00315843

*CONN
*I *626:B I *C 41.615 3.915 *L 0.00184 *D MX2X1
*I *549:Q O *C 42.485 4.495 *L 0 *D SDFFRHQX1
*P *44 O *C 51.185 0 *L 0
*I *550:SI I *C 62.205 3.915 *L 0.00276 *D SDFFRHQX1

*CAP
1 *44:0 0.000124
2 *44:1 0.000155
3 *44:2 0.000571694
4 *44:3 7.74999e-05
5 *44:5 0.000865004
6 *44:6 4.64999e-05
7 *44:7 0.000325403
8 *44:8 6.19999e-05
9 *44:10 0.000304885
10 *44 6.19999e-05
11 *44:12 0.000288839
12 *44:13 6.41864e-05
13 *44:14 4.81398e-05
14 *44:15 8.16424e-05
15 *44:16 8.16424e-05

*RES
1 *44:16 *550:SI 1.4
2 *44:15 *44:16 0.621444
3 *44:14 *44:15 1.4
4 *44:13 *44:14 0.372849
5 *44:12 *44:13 0.124283
6 *44:10 *44:12 2.11281
7 *44:8 *44 0.497134
8 *44:7 *44:10 0.248566
9 *44:6 *549:Q 1.4
10 *44:5 *44:8 1.4
11 *44:5 *44:7 2.23709
12 *44:3 *44:6 0.37285
13 *44:2 *44:5 4.10134
14 *44:1 *626:B 1.4
15 *44:1 *44:3 0.248567
16 *44:0 *44:2 1.4
17 *44:0 *44:1 0.994267
*END

*D_NET *45 0.00388785

*CONN
*I *548:Q O *C 27.405 4.495 *L 0 *D SDFFRHQX1
*P *45 O *C 37.845 0 *L 0
*I *633:B I *C 38.715 3.915 *L 0.00184 *D MX2X1
*I *549:SI I *C 50.895 3.915 *L 0.00276 *D SDFFRHQX1

*CAP
1 *45:0 0.000623666
2 *45:1 0.0001395
3 *45:2 0.00138592
4 *45:3 0.0001395
5 *45:4 0.000762259
6 *45:5 9.29999e-05
7 *45:7 0.000124
8 *45:8 0.000124
9 *45 1.55e-05
10 *45:10 0.0001395
11 *45:11 0.0001395
12 *45:12 6.19999e-05
13 *45:13 9.29999e-05
14 *45:14 4.64999e-05

*RES
1 *45:14 *549:SI 1.4
2 *45:13 *633:B 1.4
3 *45:12 *45:14 0.37285
4 *45:11 *45:13 0.7457
5 *45:10 *45:12 0.124283
6 *45:8 *45:11 0.37285
7 *45:7 *45:10 0.994267
8 *45:5 *45 0.124283
9 *45:5 *45:8 0.621417
10 *45:4 *45:7 1.4
11 *45:3 *548:Q 1.4
12 *45:2 *45:5 1.4
13 *45:2 *45:4 5.46845
14 *45:1 *45:3 1.11855
15 *45:0 *45:2 4.47418
16 *45:0 *45:1 1.4
*END

*D_NET *46 0.0034318

*CONN
*I *548:SI I *C 35.815 3.915 *L 0.00276 *D SDFFRHQX1
*P *46 O *C 25.955 0 *L 0
*I *637:B I *C 24.795 9.135 *L 0.00184 *D MX2X1
*I *547:Q O *C 16.965 4.495 *L 0 *D SDFFRHQX1

*CAP
1 *46:2 0.00064876
2 *46:4 0.00064876
3 *46:5 0.0001725
4 *46:6 6.27273e-05
5 *46:7 0.000125455
6 *46:8 0.000203864
7 *46:9 0.000471229
8 *46:10 0.000203864
9 *46:11 6.08038e-05
10 *46:12 0.000410426
11 *46:13 6.27273e-05
12 *46:14 6.27273e-05
13 *46:15 9.4091e-05
14 *46:16 4.70455e-05
15 *46 6.27273e-05
16 *46:18 9.4091e-05

*RES
1 *46:18 *547:Q 1.4
2 *46:16 *637:B 1.4
3 *46:15 *46:18 0.745733
4 *46:14 *46 0.497155
5 *46:13 *46:16 0.372866
6 *46:12 *46:15 1.4
7 *46:11 *46:14 1.4
8 *46:10 *46:13 0.124289
9 *46:9 *46:12 3.3558
10 *46:9 *46:11 0.497155
11 *46:8 *46:10 1.49147
12 *46:7 *46:9 1.4
13 *46:6 *46:8 0.124289
14 *46:5 *46:7 0.99431
15 *46:5 *46:6 0.372866
16 *46:4 *46:5 1.4
17 *46:2 *46:4 4.72278
18 *46:1 *548:SI 1.4
19 *46:1 *46:2 1.4
20 *46:0 *46:1 0.220714
*END

*D_NET *47 0.00323163

*CONN
*I *546:Q O *C 7.395 4.495 *L 0 *D SDFFRHQX1
*P *47 O *C 16.095 0 *L 0
*I *634:B I *C 16.675 6.525 *L 0.00184 *D MX2X1
*I *547:SI I *C 25.375 3.915 *L 0.00276 *D SDFFRHQX1

*CAP
1 *47:0 0.000456028
2 *47:1 0.000125455
3 *47:2 0.000501631
4 *47:3 0.000125455
5 *47:4 6.08038e-05
6 *47:5 7.84092e-05
7 *47:7 0.000410426
8 *47:8 6.27273e-05
9 *47 3.13637e-05
10 *47:10 0.000410426
11 *47:11 0.000188182
12 *47:12 6.08038e-05
13 *47:13 0.000188182
14 *47:14 4.56028e-05
15 *47:15 9.4091e-05
16 *47:16 0.000156818
17 *47:17 7.84092e-05
18 *47:18 0.000156818

*RES
1 *47:18 *547:SI 1.4
2 *47:17 *634:B 1.4
3 *47:16 *47:18 1.24289
4 *47:15 *47:17 0.621444
5 *47:14 *47:16 1.4
6 *47:13 *47:15 0.124289
7 *47:12 *47:14 0.372866
8 *47:11 *47:13 1.36718
9 *47:10 *47:12 0.124289
10 *47:8 *47:11 0.124289
11 *47:7 *47:10 3.23151
12 *47:5 *47 0.248578
13 *47:5 *47:8 0.372866
14 *47:4 *47:7 0.124289
15 *47:3 *546:Q 1.4
16 *47:2 *47:5 1.4
17 *47:2 *47:4 0.372866
18 *47:1 *47:3 0.99431
19 *47:0 *47:2 3.72866
20 *47:0 *47:1 1.4
*END

*D_NET *48 0.00280985

*CONN
*I *545:Q O *C 2.755 5.945 *L 0 *D SDFFRHQX1
*P *48 O *C 9.715 0 *L 0
*I *546:SI I *C 15.805 3.915 *L 0.00276 *D SDFFRHQX1
*I *641:B I *C 14.065 6.525 *L 0.00184 *D MX2X1

*CAP
1 *48:0 0.0001725
2 *48:1 0.000156818
3 *48:2 7.84092e-05
4 *48:4 6.27273e-05
5 *48:5 4.56028e-05
6 *48:6 6.08038e-05
7 *48:7 0.000152009
8 *48:8 0.000152009
9 *48:9 0.000182411
10 *48:10 0.000395225
11 *48:11 0.00031922
12 *48:12 7.84092e-05
13 *48:13 9.12057e-05
14 *48:14 7.84092e-05
15 *48 7.84092e-05
16 *48:16 0.000109773
17 *48:17 9.4091e-05
18 *48:18 0.000109773
19 *48:19 0.000141136
20 *48:21 0.000141136
21 *48:22 6.27273e-05
22 *48:23 4.70455e-05

*RES
1 *48:23 *641:B 1.4
2 *48:22 *48:23 0.372866
3 *48:21 *48:22 0.124289
4 *48:19 *48:21 0.99431
5 *48:18 *546:SI 1.4
6 *48:17 *48:19 0.124289
7 *48:16 *48:18 0.870021
8 *48:14 *48:17 0.621444
9 *48:13 *48:16 1.4
10 *48:12 *48 0.621444
11 *48:11 *48:14 1.4
12 *48:11 *48:13 0.745732
13 *48:10 *48:12 1.4
14 *48:10 *48:11 1.86433
15 *48:9 *48:10 1.36718
16 *48:8 *48:9 0.124289
17 *48:7 *48:8 1.1186
18 *48:6 *48:7 0.124289
19 *48:5 *48:6 0.372866
20 *48:4 *48:5 1.4
21 *48:2 *48:4 0.497155
22 *48:1 *545:Q 1.4
23 *48:0 *48:2 0.124289
24 *48:0 *48:1 1.24289
*END

*D_NET *49 0.00190511

*CONN
*P *49 O *C 0 9.425 *L 0
*I *544:Q O *C 2.755 9.715 *L 0 *D SDFFRHQX1
*I *632:B I *C 5.365 11.745 *L 0.00184 *D MX2X1
*I *545:SI I *C 11.165 6.525 *L 0.00276 *D SDFFRHQX1

*CAP
1 *49:1 1.56818e-05
2 *49:2 1.56818e-05
3 *49:3 9.12057e-05
4 *49:4 4.56028e-05
5 *49:5 0.000197612
6 *49 7.60047e-05
7 *544:Q 4.56028e-05
8 *49:8 0.000228014
9 *49:9 6.08038e-05
10 *49:10 0.000109773
11 *49:11 0.000197612
12 *49:12 0.000109773
13 *49:13 0.000197612
14 *49:15 6.08038e-05
15 *49:16 4.56028e-05
16 *49:17 6.27273e-05
17 *49:18 9.4091e-05
18 *49:19 0.000141136
19 *49:20 0.000109773

*RES
1 *49:20 *545:SI 1.4
2 *49:19 *49:20 0.870021
3 *49:18 *49:19 0.248578
4 *49:17 *49:18 0.497155
5 *49:16 *49:17 1.4
6 *49:15 *49:16 0.372866
7 *49:13 *49:15 0.124289
8 *49:12 *632:B 1.4
9 *49:11 *49:13 1.49146
10 *49:10 *49:12 0.870021
11 *49:9 *49:11 0.124289
12 *49:8 *49:10 1.4
13 *49:8 *49:9 0.372866
14 *49:5 *49:8 1.49146
15 *49:4 *544:Q 0.372866
16 *49:3 *49 0.621444
17 *49:3 *49:5 0.124289
18 *49:2 *49:4 1.4
19 *49:1 *49:3 1.4
20 *49:1 *49:2 0.124289
21 *49:0 *49:1 0.212143
*END

*D_NET *50 0.00243926

*CONN
*I *543:Q O *C 2.755 14.935 *L 0 *D SDFFRHQX1
*P *50 O *C 0 14.065 *L 0
*I *631:B I *C 7.395 16.965 *L 0.00184 *D MX2X1
*I *544:SI I *C 11.165 9.135 *L 0.00276 *D SDFFRHQX1

*CAP
1 *50:1 0.000156818
2 *50:2 4.56028e-05
3 *50:3 0.000141136
4 *50:4 1.56818e-05
5 *543:Q 4.56028e-05
6 *50:6 7.60047e-05
7 *50:7 7.60047e-05
8 *50:8 9.12057e-05
9 *50 7.60047e-05
10 *50:10 0.000182411
11 *50:11 0.000182411
12 *50:12 6.08038e-05
13 *50:13 0.000212813
14 *50:14 0.00016721
15 *50:16 0.0001725
16 *50:19 0.000188182
17 *50:20 0.000188182
18 *50:21 0.000188182
19 *50:22 9.4091e-05
20 *50:23 7.84092e-05

*RES
1 *50:23 *544:SI 1.4
2 *50:22 *50:23 0.621444
3 *50:21 *50:22 0.124289
4 *50:20 *50:21 1.36718
5 *50:19 *50:20 0.124289
6 *50:16 *50:19 1.36718
7 *50:15 *631:B 1.4
8 *50:15 *50:17 0.220714
9 *50:14 *50:16 1.4
10 *50:13 *50:15 1.4
11 *50:13 *50:14 1.36718
12 *50:12 *50:13 0.372866
13 *50:11 *50:12 0.124289
14 *50:10 *50:11 1.36718
15 *50:8 *50:10 0.124289
16 *50:7 *50 0.621444
17 *50:6 *50:8 0.621444
18 *50:4 *50:7 1.4
19 *50:3 *50:6 1.4
20 *50:2 *543:Q 0.372866
21 *50:1 *50:4 0.124289
22 *50:1 *50:3 1.1186
23 *50:1 *50:2 1.4
24 *50:0 *50:1 0.212143
*END

*D_NET *51 0.00327448

*CONN
*I *630:B I *C 7.395 24.795 *L 0.00184 *D MX2X1
*P *51 O *C 0 25.085 *L 0
*I *542:Q O *C 2.755 30.595 *L 0 *D SDFFRHQX1
*I *543:SI I *C 11.165 14.355 *L 0.00276 *D SDFFRHQX1

*CAP
1 *51:1 1.56818e-05
2 *51:2 1.56818e-05
3 *51:4 0.000182411
4 *51:5 0.000288818
5 *51:6 0.000182411
6 *51:7 0.000407728
7 *51:8 0.000248758
8 *51 7.60047e-05
9 *51:10 0.000407728
10 *51:11 0.000248758
11 *51:12 0.000380024
12 *51:13 4.77236e-05
13 *51:14 0.000380024
14 *542:Q 4.77236e-05
15 *51:16 0.0001725
16 *51:17 0.0001725

*RES
1 *51:17 *543:SI 1.4
2 *51:16 *51:17 1.36718
3 *51:14 *51:16 1.4
4 *51:13 *542:Q 0.372866
5 *51:12 *51:14 3.10722
6 *51:11 *51:13 1.4
7 *51:10 *51:12 1.4
8 *51:8 *51:11 1.86433
9 *51:7 *51:10 3.23151
10 *51:6 *51 0.621444
11 *51:6 *51:8 1.4
12 *51:5 *51:7 1.4
13 *51:5 *51:6 0.870021
14 *51:4 *51:5 1.49146
15 *51:2 *51:4 1.4
16 *51:1 *630:B 1.4
17 *51:1 *51:2 0.124289
18 *51:0 *51:1 0.0878571
*END

*D_NET *52 0.00208564

*CONN
*I *642:B I *C 7.395 35.235 *L 0.00184 *D MX2X1
*P *52 O *C 0 35.525 *L 0
*I *541:Q O *C 2.755 37.265 *L 0 *D SDFFRHQX1
*I *542:SI I *C 11.165 30.015 *L 0.00276 *D SDFFRHQX1

*CAP
1 *52:1 6.74337e-05
2 *52:2 0.00022271
3 *52:3 8.42922e-05
4 *52:5 0.000238618
5 *52:6 0.000202301
6 *52:7 4.77236e-05
7 *52:8 0.000202301
8 *52:9 0.000159079
9 *52:10 6.74337e-05
10 *52:11 0.000101151
11 *52 0.000127263
12 *52:13 5.05753e-05
13 *52:14 0.000101151
14 *52:15 0.000206802
15 *52:17 0.000206802

*RES
1 *52:18 *542:SI 1.4
2 *52:18 *52:19 0.220714
3 *52:17 *52:18 1.4
4 *52:15 *52:17 1.61575
5 *52:14 *541:Q 1.4
6 *52:13 *52:15 1.4
7 *52:11 *52:14 0.745732
8 *52:10 *52:13 0.372866
9 *52:9 *52 0.99431
10 *52:9 *52:11 1.4
11 *52:8 *52:10 0.124289
12 *52:7 *52:9 0.248578
13 *52:6 *52:8 1.36718
14 *52:5 *52:7 0.124289
15 *52:3 *52:6 0.124289
16 *52:2 *52:5 1.74004
17 *52:1 *642:B 1.4
18 *52:1 *52:3 0.497155
19 *52:1 *52:2 1.4
20 *52:0 *52:1 0.220714
*END

*D_NET *53 0.00265832

*CONN
*I *640:B I *C 6.525 43.065 *L 0.00184 *D MX2X1
*P *53 O *C 0 43.355 *L 0
*I *540:Q O *C 2.755 46.255 *L 0 *D SDFFRHQX1
*I *541:SI I *C 11.165 37.845 *L 0.00276 *D SDFFRHQX1

*CAP
1 *53:1 1.68584e-05
2 *53:2 1.68584e-05
3 *53:4 0.000254526
4 *53:5 0.000334065
5 *53:6 0.000387744
6 *53 7.95393e-05
7 *53:8 0.000101151
8 *53:9 0.000286593
9 *53:10 4.77236e-05
10 *53:11 0.000349973
11 *540:Q 4.77236e-05
12 *53:13 0.000461328
13 *53:14 0.000159079
14 *53:15 4.77236e-05
15 *53:16 3.37169e-05
16 *53:17 3.37169e-05

*RES
1 *53:17 *541:SI 1.4
2 *53:16 *53:17 0.248578
3 *53:15 *53:16 1.4
4 *53:14 *53:15 0.372866
5 *53:13 *53:14 0.870021
6 *53:11 *53:13 2.73435
7 *53:10 *540:Q 0.372866
8 *53:9 *53:11 1.4
9 *53:8 *53:10 1.4
10 *53:6 *53:9 2.11291
11 *53:6 *53:8 0.745732
12 *53:5 *53 0.621444
13 *53:5 *53:6 1.4
14 *53:4 *53:5 1.98862
15 *53:2 *53:4 1.4
16 *53:1 *640:B 1.4
17 *53:1 *53:2 0.124289
18 *53:0 *53:1 0.0878571
*END

*D_NET *54 0.00211106

*CONN
*I *486:Y O *C 54.085 62.205 *L 0 *D NOR3BXL
*P *54 O *C 54.085 80.91 *L 0

*CAP
1 *54:0 0.000565392
2 *54:1 6.65167e-05
3 *54:2 0.000565392
4 *54:3 4.98875e-05
5 *54:4 0.00044025
6 *54 0.000423621

*RES
1 *54:4 *54 3.35575
2 *54:3 *486:Y 1.4
3 *54:2 *54:4 0.124288
4 *54:1 *54:3 0.372865
5 *54:0 *54:2 4.10151
6 *54:0 *54:1 0.124288
*END

*D_NET *55 0.0551933

*CONN
*I *504:SE I *C 13.485 66.845 *L 0.00488 *D SDFFRHQX1
*I *506:SE I *C 14.065 68.875 *L 0.00488 *D SDFFRHQX1
*I *505:SE I *C 11.165 63.655 *L 0.00488 *D SDFFRHQX1
*I *498:SE I *C 13.775 72.065 *L 0.00488 *D SDFFRHQX1
*I *497:SE I *C 11.165 61.625 *L 0.00488 *D SDFFRHQX1
*I *496:SE I *C 13.775 58.435 *L 0.00488 *D SDFFRHQX1
*I *499:SE I *C 18.995 74.095 *L 0.00488 *D SDFFRHQX1
*I *507:SE I *C 23.345 72.065 *L 0.00488 *D SDFFRHQX1
*I *533:SE I *C 14.355 47.995 *L 0.00488 *D SDFFRHQX1
*I *532:SE I *C 15.515 51.185 *L 0.00488 *D SDFFRHQX1
*I *523:SE I *C 17.835 53.215 *L 0.00488 *D SDFFRHQX1
*I *500:SE I *C 32.915 72.065 *L 0.00488 *D SDFFRHQX1
*I *508:SE I *C 32.335 68.875 *L 0.00488 *D SDFFRHQX1
*I *534:SE I *C 15.805 42.775 *L 0.00488 *D SDFFRHQX1
*I *503:SE I *C 32.335 66.845 *L 0.00488 *D SDFFRHQX1
*I *524:SE I *C 20.735 45.965 *L 0.00488 *D SDFFRHQX1
*I *540:SE I *C 11.165 45.965 *L 0.00488 *D SDFFRHQX1
*I *541:SE I *C 11.165 37.555 *L 0.00488 *D SDFFRHQX1
*I *501:SE I *C 39.295 74.095 *L 0.00488 *D SDFFRHQX1
*I *502:SE I *C 41.905 68.875 *L 0.00488 *D SDFFRHQX1
*I *495:SE I *C 33.205 63.655 *L 0.00488 *D SDFFRHQX1
*I *525:SE I *C 24.215 47.995 *L 0.00488 *D SDFFRHQX1
*I *509:SE I *C 43.645 72.065 *L 0.00488 *D SDFFRHQX1
*I *542:SE I *C 11.165 30.305 *L 0.00488 *D SDFFRHQX1
*I *526:SE I *C 36.685 42.775 *L 0.00488 *D SDFFRHQX1
*I *535:SE I *C 36.105 45.965 *L 0.00488 *D SDFFRHQX1
*P *55 I *C 45.965 80.91 *L 0
*I *531:SE I *C 37.555 47.995 *L 0.00488 *D SDFFRHQX1
*I *536:SE I *C 37.845 40.745 *L 0.00488 *D SDFFRHQX1
*I *510:SE I *C 52.925 68.875 *L 0.00488 *D SDFFRHQX1
*I *527:SE I *C 38.715 51.185 *L 0.00488 *D SDFFRHQX1
*I *494:SE I *C 55.825 72.065 *L 0.00488 *D SDFFRHQX1
*I *522:SE I *C 45.385 53.215 *L 0.00488 *D SDFFRHQX1
*I *519:SE I *C 57.855 66.845 *L 0.00488 *D SDFFRHQX1
*I *543:SE I *C 11.165 14.645 *L 0.00488 *D SDFFRHQX1
*I *518:SE I *C 58.435 74.095 *L 0.00488 *D SDFFRHQX1
*I *544:SE I *C 11.165 9.425 *L 0.00488 *D SDFFRHQX1
*I *545:SE I *C 11.165 6.235 *L 0.00488 *D SDFFRHQX1
*I *493:SE I *C 62.495 68.875 *L 0.00488 *D SDFFRHQX1
*I *520:SE I *C 61.335 56.405 *L 0.00488 *D SDFFRHQX1
*I *521:SE I *C 61.625 53.215 *L 0.00488 *D SDFFRHQX1
*I *517:SE I *C 65.395 72.065 *L 0.00488 *D SDFFRHQX1
*I *539:SE I *C 62.495 51.185 *L 0.00488 *D SDFFRHQX1
*I *516:SE I *C 74.965 72.065 *L 0.00488 *D SDFFRHQX1
*I *492:SE I *C 74.965 68.875 *L 0.00488 *D SDFFRHQX1
*I *530:SE I *C 64.525 47.995 *L 0.00488 *D SDFFRHQX1
*I *529:SE I *C 60.465 45.965 *L 0.00488 *D SDFFRHQX1
*I *515:SE I *C 77.285 74.095 *L 0.00488 *D SDFFRHQX1
*I *491:SE I *C 77.285 66.845 *L 0.00488 *D SDFFRHQX1
*I *538:SE I *C 54.955 47.995 *L 0.00488 *D SDFFRHQX1
*I *537:SE I *C 50.895 45.965 *L 0.00488 *D SDFFRHQX1
*I *514:SE I *C 77.575 63.655 *L 0.00488 *D SDFFRHQX1
*I *488:SE I *C 76.995 45.965 *L 0.00488 *D SDFFRHQX1
*I *528:SE I *C 51.765 42.775 *L 0.00488 *D SDFFRHQX1
*I *490:SE I *C 77.575 61.625 *L 0.00488 *D SDFFRHQX1
*I *487:SE I *C 79.315 42.775 *L 0.00488 *D SDFFRHQX1
*I *489:SE I *C 76.995 47.995 *L 0.00488 *D SDFFRHQX1
*I *557:SE I *C 79.315 37.555 *L 0.00488 *D SDFFRHQX1
*I *556:SE I *C 79.315 35.525 *L 0.00488 *D SDFFRHQX1
*I *512:SE I *C 76.125 53.215 *L 0.00488 *D SDFFRHQX1
*I *513:SE I *C 76.705 51.185 *L 0.00488 *D SDFFRHQX1
*I *511:SE I *C 73.225 56.405 *L 0.00488 *D SDFFRHQX1
*I *555:SE I *C 79.315 19.865 *L 0.00488 *D SDFFRHQX1
*I *554:SE I *C 79.315 14.645 *L 0.00488 *D SDFFRHQX1
*I *553:SE I *C 79.315 9.425 *L 0.00488 *D SDFFRHQX1
*I *552:SE I *C 78.155 6.235 *L 0.00488 *D SDFFRHQX1
*I *551:SE I *C 74.095 4.205 *L 0.00488 *D SDFFRHQX1
*I *550:SE I *C 62.205 4.205 *L 0.00488 *D SDFFRHQX1
*I *549:SE I *C 50.895 4.205 *L 0.00488 *D SDFFRHQX1
*I *548:SE I *C 35.815 4.205 *L 0.00488 *D SDFFRHQX1
*I *547:SE I *C 25.375 4.205 *L 0.00488 *D SDFFRHQX1
*I *546:SE I *C 15.805 4.205 *L 0.00488 *D SDFFRHQX1

*CAP
1 *55:1 3.13418e-05
2 *55:2 6.26836e-05
3 *55:3 0.000124998
4 *55:5 0.000109696
5 *55:6 0.000124998
6 *55:7 0.000203722
7 *55:8 0.00017238
8 *55:9 0.000141038
9 *55:11 0.000250734
10 *55:12 4.68743e-05
11 *55:13 6.26836e-05
12 *55:14 0.000156709
13 *55:16 6.24991e-05
14 *55:17 4.70127e-05
15 *55:18 0.000109696
16 *55:19 3.13418e-05
17 *55:20 0.000187497
18 *55:22 9.40254e-05
19 *55:24 0.000187497
20 *55:25 0.000203722
21 *55:26 6.24991e-05
22 *55:27 0.000235064
23 *55:28 9.37487e-05
24 *55:29 0.000125367
25 *55:30 0.000156248
26 *55:31 0.000156709
27 *55:32 3.13418e-05
28 *55:33 4.70127e-05
29 *55:34 0.000187497
30 *55:35 0.000156709
31 *55:37 0.000125367
32 *55:38 0.000124998
33 *55:40 0.000125367
34 *55:41 0.000158948
35 *55:42 4.70127e-05
36 *55:43 0.000205503
37 *55:44 0.000234046
38 *55:45 4.70127e-05
39 *55:46 0.000476426
40 *55:47 0.000156822
41 *55:49 0.000181286
42 *55:50 0.00032031
43 *55:51 0.00026137
44 *55:52 8.01358e-05
45 *55:53 3.37169e-05
46 *55:54 0.000151726
47 *55:56 0.00026137
48 *55:57 0.000124998
49 *55:59 0.000101151
50 *55:60 8.71235e-05
51 *55:61 0.000124998
52 *55:62 0.000236018
53 *55:63 0.000104548
54 *55:65 0.000190894
55 *55:66 0.000185443
56 *55:67 6.96988e-05
57 *55:68 0.000100136
58 *55:71 0.000206802
59 *55:72 0.000270434
60 *55:73 0.000243946
61 *55:74 5.00681e-05
62 *55:75 8.34468e-05
63 *55:76 0.000174987
64 *55:77 0.000127263
65 *55:78 0.000143171
66 *55:79 0.000243946
67 *55:81 0.000116825
68 *55:82 0.000174987
69 *55:83 3.37169e-05
70 *55:84 0.00021916
71 *55:85 0.000121973
72 *55:86 0.000200272
73 *55:87 6.36315e-05
74 *55:88 3.37169e-05
75 *55:89 8.42922e-05
76 *55:90 0.000168584
77 *55:91 0.00026137
78 *55:92 0.000333787
79 *55:94 0.000238618
80 *55:96 0.000168584
81 *55:97 0.000134867
82 *55:98 0.00026137
83 *55:99 0.000166894
84 *55:100 0.00026703
85 *55:102 0.000408145
86 *55:104 0.000151726
87 *55:105 0.000303452
88 *55:106 0.000226521
89 *55:107 0.000133515
90 *55:108 0.000166894
91 *55:109 8.34468e-05
92 *55:110 0.000251852
93 *55:111 0.000118009
94 *55:115 0.000202301
95 *55:117 0.000174247
96 *55:118 8.34468e-05
97 *55:119 0.000133515
98 *55:121 3.33787e-05
99 *55:122 0.00055363
100 *55:123 0.000118009
101 *55:124 0.000252876
102 *55:125 0.000317098
103 *55:126 6.96988e-05
104 *55:127 5.00681e-05
105 *55:128 5.00681e-05
106 *55:131 0.000519028
107 *55:133 0.000303452
108 *55:134 0.000333787
109 *55:135 0.000278795
110 *55:137 0.000667574
111 *55:138 0.000189833
112 *55:139 1.68584e-05
113 *55:140 8.42922e-05
114 *55:141 0.000174631
115 *55:142 0.000278795
116 *55:143 0.000650885
117 *55:144 0.000155318
118 *55:145 0.000189833
119 *55:147 0.000202301
120 *55:148 0.000172641
121 *55:149 0.000134857
122 *55:150 0.000121973
123 *55:151 0.000276121
124 *55:152 3.45151e-05
125 *55:153 0.000103545
126 *55:155 0.000185443
127 *55:156 5.88e-05
128 *55:157 0.000117432
129 *55:158 0.000121973
130 *55:159 0.000138061
131 *55:160 8.62879e-05
132 *55:162 0.000155318
133 *55:163 0.00033226
134 *55 4.41e-05
135 *55:165 0.000166292
136 *55:166 0.000133515
137 *55:167 0.000121107
138 *55:168 3.45151e-05
139 *55:169 8.62879e-05
140 *55:170 0.000331083
141 *55:171 9.97751e-05
142 *55:172 0.000133033
143 *55:173 0.000150204
144 *55:174 0.000121107
145 *55:177 0.000156818
146 *55:178 0.000161273
147 *55:179 0.000274165
148 *55:180 6.65167e-05
149 *55:181 0.000166894
150 *55:182 8.62879e-05
151 *55:183 0.0001725
152 *55:184 0.000177401
153 *55:185 0.000274165
154 *55:187 0.000166894
155 *55:188 8.62879e-05
156 *55:189 0.0001725
157 *55:190 0.000161273
158 *55:191 4.98875e-05
159 *55:192 6.65167e-05
160 *55:193 8.34468e-05
161 *55:195 0.000156818
162 *55:196 0.000193528
163 *55:197 4.98875e-05
164 *55:198 0.000182921
165 *55:199 6.67574e-05
166 *55:200 6.27273e-05
167 *55:201 4.8382e-05
168 *55:203 4.8382e-05
169 *55:204 0.000116404
170 *55:206 0.0001725
171 *55:208 6.45093e-05
172 *55:210 0.000235227
173 *55:214 0.000177401
174 *55:215 0.000156818
175 *55:216 0.000177401
176 *55:217 0.000219546
177 *55:218 6.45093e-05
178 *55:219 0.0001725
179 *55:221 4.8382e-05
180 *55:223 0.000848088
181 *55:224 0.000133033
182 *55:226 0.000748313
183 *55:228 0.000161273
184 *55:229 0.000249438
185 *55:230 0.000419311
186 *55:231 3.32584e-05
187 *55:232 0.000283806
188 *55:233 0.000290292
189 *55:234 4.98875e-05
190 *55:236 1.66292e-05
191 *55:237 0.000136363
192 *55:238 0.00024191
193 *55:239 4.98875e-05
194 *55:241 6.94766e-05
195 *55:242 0.000121584
196 *55:243 0.000258037
197 *55:245 3.47383e-05
198 *55:246 0.000121584
199 *55:247 0.000112891
200 *55:249 0.000225799
201 *55:250 6.45093e-05
202 *55:251 0.000225799
203 *55:252 0.000182921
204 *55:253 6.94766e-05
205 *55:254 6.65167e-05
206 *55:255 0.000182921
207 *55:256 5.21074e-05
208 *55:258 6.65167e-05
209 *55:260 0.000231949
210 *55:261 0.000129019
211 *55:262 0.000381059
212 *55:263 0.000381059
213 *55:264 0.000129019
214 *55:265 0.000231949
215 *55:266 0.000138953
216 *55:267 0.000549303
217 *55:268 1.73691e-05
218 *55:269 0.000415729
219 *55:270 9.94068e-05
220 *55:271 0.000138953
221 *55:272 0.000234515
222 *55:273 0.000138953
223 *55:274 1.73691e-05
224 *55:275 0.000365842
225 *55:276 8.31459e-05
226 *55:277 0.000198814
227 *55:279 0.000138061
228 *55:280 0.000138953
229 *55:284 4.98875e-05
230 *55:286 0.000414195
231 *55:287 1.72576e-05
232 *55:289 0.000172576
233 *55:291 0.000166292
234 *55:292 0.000416116
235 *55:294 0.000103545
236 *55:295 0.000266067
237 *55:296 0.000117895
238 *55:297 8.68457e-05
239 *55:298 5.17727e-05
240 *55:299 0.000116404
241 *55:301 0.000167447
242 *55:302 0.000173691
243 *55:306 0.00044145
244 *55:307 3.47383e-05
245 *55:308 0.000330014
246 *55:309 0.000380561
247 *55:312 0.000346273
248 *55:313 0.000243559
249 *55:315 6.68867e-05
250 *55:316 8.68457e-05
251 *55:317 0.000152224
252 *55:319 3.32584e-05
253 *55:320 0.000161273
254 *55:321 5.21074e-05
255 *55:322 0.000152224
256 *55:324 0.000161273
257 *55:326 0.000167447
258 *55:327 0.000216179
259 *55:328 0.000281934
260 *55:329 0.000216179
261 *55:330 0.000276099
262 *55:332 0.000147665
263 *55:333 0.000135359
264 *55:334 0.000123054
265 *55:335 0.000332246
266 *55:336 0.000258413
267 *55:338 6.1527e-05
268 *55:340 0.000172275
269 *55:341 0.000172275
270 *55:342 6.1527e-05
271 *55:343 7.38324e-05
272 *55:344 4.92216e-05
273 *55:346 0.000110749
274 *55:347 0.000110749
275 *55:348 4.92216e-05
276 *55:349 3.69162e-05
277 *55:350 4.8707e-05
278 *55:351 0.000271424
279 *55:352 0.000254811
280 *55:353 3.69162e-05
281 *55:354 6.41864e-05
282 *55:355 6.53139e-05
283 *55:356 3.69162e-05
284 *55:357 0.000176513
285 *55:358 6.53139e-05
286 *55:360 0.000160466
287 *55:362 0.000497444
288 *55:363 0.000481398
289 *55:364 4.89854e-05
290 *55:365 0.000114299
291 *55:366 6.53139e-05
292 *55:368 0.000385118
293 *55:369 0.000417211
294 *55:370 0.000225291
295 *55:371 0.000227846
296 *55:372 8.66203e-05
297 *55:373 0.000103944
298 *55:374 8.66203e-05
299 *55:375 6.19999e-05
300 *55:376 0.000398453
301 *55:377 6.19999e-05
302 *55:378 0.000398453
303 *55:380 0.000242537
304 *55:381 0.000242537
305 *55:382 0.000242537
306 *55:383 0.000242537
307 *55:384 0.000103944
308 *55:385 0.000415777
309 *55:386 0.000381129
310 *55:387 6.19999e-05
311 *55:388 0.000259861
312 *55:389 6.19999e-05
313 *55:390 0.000259861
314 *55:392 8.34356e-05
315 *55:393 9.43904e-05
316 *55:394 6.08038e-05
317 *55:395 6.27273e-05
318 *55:396 0.000425627
319 *55:397 6.27273e-05
320 *55:398 0.000425627
321 *55:400 6.08038e-05
322 *55:401 4.56028e-05
323 *55:402 6.27273e-05
324 *55:403 6.27273e-05

*RES
1 *55:403 *546:SE 1.4
2 *55:402 *55:403 0.497155
3 *55:401 *55:402 1.4
4 *55:400 *55:401 0.372866
5 *55:398 *55:400 0.124289
6 *55:397 *547:SE 1.4
7 *55:396 *55:398 3.3558
8 *55:395 *55:397 0.497155
9 *55:394 *55:396 0.124289
10 *55:393 *55:395 1.4
11 *55:393 *55:394 0.372866
12 *55:392 *55:393 0.372858
13 *55:390 *55:392 0.248566
14 *55:389 *548:SE 1.4
15 *55:388 *55:390 1.61568
16 *55:387 *55:389 0.497134
17 *55:386 *55:388 0.248566
18 *55:385 *55:387 1.4
19 *55:385 *55:386 2.48566
20 *55:384 *55:385 0.497132
21 *55:383 *55:384 0.248566
22 *55:382 *55:383 1.49139
23 *55:381 *55:382 0.248566
24 *55:380 *55:381 1.49139
25 *55:378 *55:380 0.248566
26 *55:377 *549:SE 1.4
27 *55:376 *55:378 2.60994
28 *55:375 *55:377 0.497134
29 *55:374 *55:376 0.248566
30 *55:373 *55:375 1.4
31 *55:373 *55:374 0.372849
32 *55:372 *55:373 0.372849
33 *55:371 *55:372 0.248566
34 *55:370 *55:371 1.4914
35 *55:369 *55:370 0.248566
36 *55:368 *55:369 2.98279
37 *55:366 *55:368 1.4
38 *55:365 *550:SE 1.4
39 *55:365 *55:366 0.497155
40 *55:364 *55:365 0.372866
41 *55:363 *55:364 1.4
42 *55:362 *55:363 3.72849
43 *55:360 *55:362 0.124283
44 *55:358 *551:SE 1.4
45 *55:357 *55:360 1.11855
46 *55:356 *552:SE 1.4
47 *55:355 *55:358 0.497155
48 *55:354 *55:357 0.248566
49 *55:353 *55:356 0.372866
50 *55:352 *55:355 1.4
51 *55:352 *55:354 0.248566
52 *55:351 *55:353 1.4
53 *55:351 *55:352 1.73997
54 *55:350 *55:351 0.497155
55 *55:349 *55:350 1.4
56 *55:348 *55:349 0.372866
57 *55:347 *55:348 0.124289
58 *55:346 *55:347 0.99431
59 *55:344 *55:346 0.124289
60 *55:343 *553:SE 1.4
61 *55:343 *55:344 0.372866
62 *55:342 *55:343 0.372866
63 *55:341 *55:342 0.248577
64 *55:340 *55:341 1.49146
65 *55:338 *55:340 0.248577
66 *55:336 *554:SE 1.4
67 *55:336 *55:338 0.372866
68 *55:335 *555:SE 1.4
69 *55:335 *55:336 2.2372
70 *55:334 *55:335 1.1186
71 *55:333 *55:334 0.124289
72 *55:332 *55:333 1.24289
73 *55:330 *55:332 0.248577
74 *55:329 *511:SE 1.4
75 *55:328 *55:330 2.11283
76 *55:327 *55:329 1.61575
77 *55:326 *55:328 0.248566
78 *55:324 *55:327 1.4
79 *55:322 *55:326 1.11855
80 *55:321 *513:SE 1.4
81 *55:320 *55:324 1.24283
82 *55:319 *512:SE 1.4
83 *55:317 *55:322 0.124283
84 *55:316 *55:321 0.372849
85 *55:315 *55:320 1.4
86 *55:315 *55:319 0.248577
87 *55:313 *556:SE 1.4
88 *55:313 *55:317 1.11855
89 *55:312 *55:316 0.248566
90 *55:312 *55:315 0.248574
91 *55:309 *557:SE 1.4
92 *55:309 *55:313 0.869982
93 *55:308 *55:312 1.98853
94 *55:307 *489:SE 1.4
95 *55:306 *487:SE 1.4
96 *55:306 *55:309 2.2371
97 *55:302 *55:308 0.372849
98 *55:302 *55:307 0.248566
99 *55:301 *55:306 1.36711
100 *55:299 *490:SE 1.4
101 *55:298 *528:SE 1.4
102 *55:297 *488:SE 1.4
103 *55:297 *55:302 0.621415
104 *55:296 *55:301 1.4
105 *55:295 *514:SE 1.4
106 *55:295 *55:299 0.870018
107 *55:294 *55:298 0.37285
108 *55:292 *55:297 1.4
109 *55:292 *55:296 0.994267
110 *55:291 *55:295 1.11859
111 *55:289 *55:294 0.37285
112 *55:287 *537:SE 1.4
113 *55:286 *55:292 2.23709
114 *55:284 *55:291 0.124288
115 *55:280 *538:SE 1.4
116 *55:279 *55:289 0.869984
117 *55:279 *55:288 0.0878571
118 *55:279 *55:287 0.124283
119 *55:277 *55:286 0.869981
120 *55:276 *491:SE 1.4
121 *55:276 *55:284 0.248577
122 *55:275 *515:SE 1.4
123 *55:274 *529:SE 1.4
124 *55:274 *55:281 0.212143
125 *55:273 *55:280 0.994263
126 *55:272 *55:279 1.4
127 *55:271 *530:SE 1.4
128 *55:270 *55:277 0.621415
129 *55:269 *55:276 0.372865
130 *55:269 *55:275 2.73434
131 *55:268 *55:274 0.124283
132 *55:267 *55:273 1.4
133 *55:267 *55:272 1.73996
134 *55:266 *55:271 0.994263
135 *55:265 *55:270 0.124283
136 *55:264 *55:269 1.4
137 *55:263 *55:268 1.4
138 *55:263 *55:267 2.36138
139 *55:262 *55:266 1.4
140 *55:262 *55:265 1.61568
141 *55:261 *55:264 0.994264
142 *55:260 *55:263 0.497132
143 *55:260 *55:262 1.24283
144 *55:258 *55:261 1.4
145 *55:256 *55:260 1.4
146 *55:255 *492:SE 1.4
147 *55:255 *55:258 0.497153
148 *55:254 *516:SE 1.4
149 *55:253 *55:256 0.372849
150 *55:252 *55:255 0.870018
151 *55:252 *55:254 0.497153
152 *55:251 *55:253 0.124283
153 *55:250 *55:252 1.4
154 *55:249 *55:251 1.49139
155 *55:247 *55:250 0.497132
156 *55:246 *55:249 0.124283
157 *55:245 *539:SE 1.4
158 *55:243 *55:247 0.372849
159 *55:242 *55:246 0.745697
160 *55:241 *55:245 0.248566
161 *55:239 *517:SE 1.4
162 *55:238 *55:243 1.61568
163 *55:237 *55:242 0.124283
164 *55:237 *55:241 0.248566
165 *55:236 *521:SE 1.4
166 *55:234 *55:239 0.372865
167 *55:233 *55:238 0.248566
168 *55:232 *55:237 0.621433
169 *55:232 *55:236 0.124288
170 *55:231 *520:SE 1.4
171 *55:230 *55:234 1.4
172 *55:230 *55:233 1.98853
173 *55:229 *55:232 1.36717
174 *55:229 *55:231 0.248577
175 *55:228 *55:230 1.24283
176 *55:226 *55:229 0.248577
177 *55:224 *55:228 1.4
178 *55:223 *493:SE 1.4
179 *55:223 *55:226 5.3444
180 *55:223 *55:225 0.220714
181 *55:223 *55:224 0.994306
182 *55:221 *55:223 1.4
183 *55:219 *545:SE 1.4
184 *55:218 *55:221 0.372849
185 *55:217 *544:SE 1.4
186 *55:217 *55:219 1.36718
187 *55:216 *55:218 0.124283
188 *55:215 *55:217 0.372866
189 *55:214 *55:216 1.24283
190 *55:210 *55:215 0.870021
191 *55:208 *55:214 0.124283
192 *55:207 *518:SE 1.4
193 *55:207 *55:212 0.03
194 *55:206 *543:SE 1.4
195 *55:206 *55:210 0.99431
196 *55:204 *519:SE 1.4
197 *55:203 *55:208 0.372849
198 *55:201 *55:207 1.4
199 *55:200 *55:206 0.372866
200 *55:199 *522:SE 1.4
201 *55:198 *55:204 0.870018
202 *55:198 *55:203 1.4
203 *55:197 *494:SE 1.4
204 *55:196 *55:201 0.372849
205 *55:195 *55:200 0.124289
206 *55:193 *55:199 0.497132
207 *55:192 *55:198 0.497153
208 *55:191 *55:197 0.372865
209 *55:190 *55:196 1.11855
210 *55:189 *55:195 1.1186
211 *55:188 *527:SE 1.4
212 *55:187 *55:193 0.124283
213 *55:185 *55:192 1.4
214 *55:184 *55:191 1.4
215 *55:184 *55:190 0.124283
216 *55:183 *55:189 0.248578
217 *55:182 *55:188 0.621417
218 *55:181 *55:187 1.11855
219 *55:180 *510:SE 1.4
220 *55:179 *55:185 2.11281
221 *55:178 *55:184 1.24283
222 *55:177 *55:183 1.1186
223 *55:174 *55:182 1.4
224 *55:173 *55:181 0.124283
225 *55:172 *55:180 0.497153
226 *55:172 *55:179 1.4
227 *55:171 *55:178 1.4
228 *55:170 *55:177 0.124289
229 *55:169 *536:SE 1.4
230 *55:168 *531:SE 1.4
231 *55:167 *55:174 0.86998
232 *55:166 *55:173 0.994264
233 *55:165 *55:172 0.497153
234 *55:165 *55:171 0.74573
235 *55:163 *55:170 2.48578
236 *55:162 *55:169 0.621417
237 *55:160 *55:168 0.248567
238 *55:159 *55:167 1.4
239 *55:158 *55:166 1.4
240 *55:157 *55:165 1.4
241 *55:156 *55 0.372866
242 *55:155 *55:163 0.124289
243 *55:153 *55:162 0.497134
244 *55:152 *535:SE 1.4
245 *55:151 *55:160 0.37285
246 *55:151 *55:159 0.994267
247 *55:150 *55:158 0.870021
248 *55:149 *55:157 0.870001
249 *55:148 *55:156 0.124289
250 *55:147 *55:155 1.24289
251 *55:145 *526:SE 1.4
252 *55:145 *55:153 0.248567
253 *55:144 *55:152 0.248567
254 *55:144 *55:151 0.621417
255 *55:143 *55:150 1.4
256 *55:142 *55:149 0.124289
257 *55:141 *55:148 1.24286
258 *55:140 *55:147 0.248578
259 *55:139 *542:SE 1.4
260 *55:138 *55:145 1.11855
261 *55:138 *55:144 0.248567
262 *55:137 *55:143 4.84703
263 *55:135 *55:142 1.86433
264 *55:134 *55:141 0.124283
265 *55:133 *55:140 0.372866
266 *55:133 *55:139 0.124289
267 *55:131 *55:138 1.4
268 *55:128 *55:137 0.124283
269 *55:127 *509:SE 1.4
270 *55:126 *55:135 0.124289
271 *55:125 *55:134 2.36138
272 *55:124 *55:133 1.74004
273 *55:123 *525:SE 1.4
274 *55:122 *55:131 3.72849
275 *55:121 *495:SE 1.4
276 *55:119 *502:SE 1.4
277 *55:118 *55:128 0.248566
278 *55:118 *55:127 0.372849
279 *55:117 *55:126 0.372866
280 *55:117 *55:125 1.4
281 *55:115 *55:124 0.124289
282 *55:111 *55:123 0.870021
283 *55:110 *55:122 0.248566
284 *55:109 *55:121 0.248566
285 *55:108 *501:SE 1.4
286 *55:107 *55:119 0.994264
287 *55:106 *55:118 1.4
288 *55:106 *55:117 0.870021
289 *55:105 *541:SE 1.4
290 *55:105 *55:115 1.36718
291 *55:104 *540:SE 1.4
292 *55:103 *524:SE 1.4
293 *55:103 *55:112 0.220714
294 *55:102 *55:111 1.4
295 *55:102 *55:110 1.61571
296 *55:100 *55:109 0.372849
297 *55:99 *55:108 1.24283
298 *55:98 *55:107 1.4
299 *55:98 *55:106 0.745732
300 *55:97 *55:105 0.870021
301 *55:96 *55:104 1.1186
302 *55:94 *55:103 1.4
303 *55:94 *55:102 1.49147
304 *55:92 *503:SE 1.4
305 *55:92 *55:100 1.61568
306 *55:91 *55:99 1.4
307 *55:91 *55:98 1.1186
308 *55:90 *55:97 0.124289
309 *55:89 *55:96 0.124289
310 *55:88 *534:SE 1.4
311 *55:87 *55:94 0.372866
312 *55:86 *508:SE 1.4
313 *55:86 *55:92 0.869981
314 *55:85 *55:91 0.745732
315 *55:84 *55:90 1.1186
316 *55:84 *55:89 0.497155
317 *55:83 *55:88 0.248578
318 *55:82 *55:87 0.124289
319 *55:81 *55:86 0.621415
320 *55:79 *55:85 0.124289
321 *55:78 *55:84 1.4
322 *55:77 *55:83 1.4
323 *55:76 *55:82 1.24289
324 *55:75 *55:81 0.248566
325 *55:74 *500:SE 1.4
326 *55:73 *55:79 1.61575
327 *55:72 *55:78 1.1186
328 *55:72 *55:77 0.99431
329 *55:71 *55:76 0.124289
330 *55:68 *55:75 0.372849
331 *55:68 *55:74 0.372849
332 *55:67 *55:73 0.124289
333 *55:66 *55:72 1.4
334 *55:65 *55:71 1.49147
335 *55:64 *523:SE 1.4
336 *55:64 *55:69 0.220714
337 *55:63 *55:68 1.4
338 *55:63 *55:67 0.372866
339 *55:62 *55:66 1.36718
340 *55:62 *55:65 1.4
341 *55:61 *55:64 1.4
342 *55:60 *55:63 0.372866
343 *55:59 *55:62 0.372866
344 *55:57 *55:61 0.99431
345 *55:56 *55:60 0.248578
346 *55:54 *55:59 0.372866
347 *55:53 *532:SE 1.4
348 *55:52 *55:57 1.4
349 *55:51 *55:56 1.61575
350 *55:50 *533:SE 1.4
351 *55:50 *55:54 0.745732
352 *55:49 *55:53 0.248578
353 *55:49 *55:52 0.621423
354 *55:47 *55:51 0.248578
355 *55:46 *55:50 1.61575
356 *55:46 *55:49 0.497155
357 *55:45 *507:SE 1.4
358 *55:44 *55:47 0.870021
359 *55:43 *55:46 1.4914
360 *55:42 *55:45 0.372848
361 *55:41 *55:44 0.870021
362 *55:40 *55:43 0.124283
363 *55:38 *55:42 1.4
364 *55:38 *55:41 0.372866
365 *55:37 *55:40 0.869979
366 *55:35 *499:SE 1.4
367 *55:34 *55:38 0.621444
368 *55:33 *55:37 0.124283
369 *55:32 *496:SE 1.4
370 *55:31 *55:35 1.24283
371 *55:30 *55:34 0.870021
372 *55:29 *55:33 0.248565
373 *55:29 *55:32 0.248565
374 *55:28 *55:31 1.4
375 *55:28 *55:30 0.372866
376 *55:27 *55:29 0.497131
377 *55:26 *55:28 0.372866
378 *55:25 *55:27 1.36711
379 *55:24 *55:26 0.124289
380 *55:22 *55:25 0.248565
381 *55:20 *55:24 1.36718
382 *55:19 *497:SE 1.4
383 *55:18 *55:22 0.497131
384 *55:17 *498:SE 1.4
385 *55:16 *55:20 0.124289
386 *55:14 *55:19 0.248565
387 *55:14 *55:18 0.372848
388 *55:13 *55:17 0.372848
389 *55:12 *55:16 0.372866
390 *55:11 *505:SE 1.4
391 *55:11 *55:14 0.621413
392 *55:9 *55:13 0.124283
393 *55:9 *55:12 1.4
394 *55:8 *55:11 1.36711
395 *55:7 *506:SE 1.4
396 *55:7 *55:9 0.994261
397 *55:6 *55:8 1.4
398 *55:5 *55:7 0.621413
399 *55:3 *55:6 0.99431
400 *55:2 *55:5 0.248565
401 *55:1 *504:SE 1.4
402 *55:1 *55:3 1.4
403 *55:1 *55:2 0.248565
404 *55:0 *55:1 0.220714
*END

*D_NET *56 0.00132288

*CONN
*I *487:SI I *C 79.315 43.065 *L 0.00276 *D SDFFRHQX1
*P *56 I *C 82.94 52.345 *L 0

*CAP
1 *56:0 0.000152224
2 *56:1 0.000152224
3 *56:2 6.08897e-05
4 *56:3 0.000304449
5 *56:4 4.56673e-05
6 *56:5 0.000289226
7 *56:7 1.32844e-05
8 *56:8 0.000159099
9 *56 0.000145815

*RES
1 *56:8 *56 1.36711
2 *56:7 *56:8 0.124283
3 *56:5 *56:7 1.4
4 *56:4 *487:SI 1.4
5 *56:3 *56:5 2.36138
6 *56:2 *56:4 0.372849
7 *56:1 *56:3 0.124283
8 *56:0 *56:2 0.124283
9 *56:0 *56:1 1.11855
*END

*D_NET *57 0.00293936

*CONN
*I *521:Q O *C 53.215 52.925 *L 0 *D SDFFRHQX1
*I *522:SI I *C 45.385 53.505 *L 0.00276 *D SDFFRHQX1
*I *675:B I *C 54.955 58.435 *L 0.00173 *D OR3X1
*I *486:AN I *C 55.535 61.335 *L 0.00174 *D NOR3BXL
*I *689:A I *C 59.595 58.435 *L 0.00273 *D CLKINVX1

*CAP
1 *57:3 0.000145146
2 *57:4 9.6764e-05
3 *57:5 6.45093e-05
4 *57:6 4.98875e-05
5 *57:7 0.000242
6 *57:8 6.65167e-05
7 *57:9 0.000243297
8 *57:10 0.00019955
9 *57:11 0.000209096
10 *57:12 0.00019955
11 *57:13 0.000191672
12 *57:14 6.65167e-05
13 *57:15 3.33787e-05
14 *57:16 9.97751e-05
15 *57:17 3.33787e-05
16 *57:18 9.97751e-05
17 *57:19 0.000258037
18 *57:21 8.31459e-05
19 *57:23 0.000258037
20 *57:24 0.000133033
21 *57:25 3.32584e-05
22 *57:26 9.97751e-05
23 *57:27 3.32584e-05

*RES
1 *57:27 *689:A 1.4
2 *57:26 *486:AN 1.4
3 *57:25 *57:27 0.248577
4 *57:24 *57:26 0.74573
5 *57:23 *57:25 1.4
6 *57:21 *57:24 0.248577
7 *57:19 *57:23 1.98853
8 *57:18 *675:B 1.4
9 *57:18 *57:21 0.372865
10 *57:17 *522:SI 1.4
11 *57:16 *57:19 1.4
12 *57:16 *57:18 0.372865
13 *57:15 *57:17 0.248566
14 *57:14 *57:16 0.372865
15 *57:13 *57:15 1.4
16 *57:12 *57:14 0.124288
17 *57:11 *57:13 1.36718
18 *57:10 *57:12 1.36717
19 *57:9 *57:11 0.124289
20 *57:8 *57:10 0.124288
21 *57:7 *57:9 1.61575
22 *57:6 *57:8 0.372865
23 *57:5 *57:7 0.124283
24 *57:4 *57:6 1.4
25 *57:3 *57:5 0.372849
26 *57:3 *57:4 0.745698
27 *57:1 *57:3 1.4
28 *57:1 *521:Q 1.4
29 *57:0 *57:1 0.220714
*END

*D_NET *58 0.00252978

*CONN
*I *675:A I *C 55.535 58.435 *L 0.00177 *D OR3X1
*I *486:C I *C 54.375 61.625 *L 0.00179 *D NOR3BXL
*I *688:A I *C 58.435 58.725 *L 0.00157 *D NAND2XL
*I *520:Q O *C 52.925 56.695 *L 0 *D SDFFRHQX1
*I *690:A I *C 59.315 61.3975 *L 0.00163 *D INVXL
*I *521:SI I *C 61.625 53.505 *L 0.00276 *D SDFFRHQX1

*CAP
1 *58:2 9.6764e-05
2 *58:4 4.8382e-05
3 *58:5 0.000145146
4 *58:6 0.000145146
5 *58:7 8.06367e-05
6 *58:8 0.000166292
7 *58:9 0.000129019
8 *58:10 9.97751e-05
9 *58:11 0.000166292
10 *58:12 0.000299325
11 *58:13 9.97751e-05
12 *58:15 0.000149663
13 *58:17 0.00019955
14 *58:20 9.97751e-05
15 *58:21 0.000177401
16 *58:22 4.98875e-05
17 *58:23 0.000177401
18 *58:25 9.97751e-05
19 *58:26 9.97751e-05

*RES
1 *58:26 *521:SI 1.4
2 *58:25 *58:26 0.74573
3 *58:23 *58:25 1.4
4 *58:22 *690:A 1.4
5 *58:21 *58:23 1.36711
6 *58:20 *58:22 0.372865
7 *58:17 *58:21 1.4
8 *58:15 *58:20 0.372865
9 *58:13 *520:Q 1.4
10 *58:12 *688:A 1.4
11 *58:12 *58:17 1.49146
12 *58:12 *58:16 0.220714
13 *58:12 *58:15 0.74573
14 *58:11 *486:C 1.4
15 *58:10 *58:13 0.74573
16 *58:9 *58:12 1.4
17 *58:8 *58:11 1.24288
18 *58:7 *58:10 1.4
19 *58:6 *58:9 0.994264
20 *58:5 *58:8 1.4
21 *58:5 *58:7 0.621415
22 *58:4 *58:6 0.124283
23 *58:2 *58:5 0.497132
24 *58:2 *58:4 0.248566
25 *58:1 *675:A 1.4
26 *58:1 *58:2 1.4
27 *58:0 *58:1 0.220714
*END

*D_NET *59 0.0146503

*CONN
*I *672:B1 I *C 13.775 61.625 *L 0.00283 *D AOI22X1
*I *670:B1 I *C 16.095 63.655 *L 0.00283 *D AOI22X1
*I *678:B1 I *C 16.385 68.875 *L 0.00283 *D AOI22X1
*I *680:B1 I *C 25.665 74.095 *L 0.00283 *D AOI22X1
*I *674:B1 I *C 26.825 61.625 *L 0.00283 *D AOI22X1
*I *681:B1 I *C 34.655 66.845 *L 0.00283 *D AOI22X1
*I *683:B1 I *C 42.775 66.845 *L 0.00283 *D AOI22X1
*I *684:S0 I *C 47.415 64.235 *L 0.00371 *D MX2X1
*I *685:B1 I *C 48.285 66.845 *L 0.00283 *D AOI22X1
*I *519:Q O *C 49.445 67.135 *L 0 *D SDFFRHQX1
*I *687:B1 I *C 53.505 63.655 *L 0.00283 *D AOI22X1
*I *486:B I *C 54.665 61.335 *L 0.00165 *D NOR3BXL
*I *677:A I *C 57.565 58.725 *L 0.00173 *D OR2X1
*I *682:B1 I *C 60.175 66.845 *L 0.00283 *D AOI22X1
*I *520:SI I *C 61.335 56.115 *L 0.00276 *D SDFFRHQX1
*I *691:A I *C 64.525 61.625 *L 0.00273 *D CLKINVX1
*I *686:B1 I *C 65.395 68.875 *L 0.00283 *D AOI22X1
*I *669:B1 I *C 66.265 58.435 *L 0.00283 *D AOI22X1
*I *671:B1 I *C 66.555 53.215 *L 0.00283 *D AOI22X1
*I *679:B1 I *C 68.005 63.655 *L 0.00283 *D AOI22X1
*I *673:B1 I *C 68.585 58.435 *L 0.00283 *D AOI22X1

*CAP
1 *59:2 0.000124998
2 *59:4 0.000124998
3 *59:5 0.000109696
4 *59:6 0.000141038
5 *59:7 4.70127e-05
6 *59:9 0.000125367
7 *59:10 0.000250734
8 *59:11 4.68743e-05
9 *59:12 0.000141038
10 *59:13 6.24991e-05
11 *59:15 0.000421869
12 *59:16 0.000421869
13 *59:17 6.24991e-05
14 *59:18 0.000113873
15 *59:19 0.000119273
16 *59:20 0.000423114
17 *59:21 6.96988e-05
18 *59:22 0.00026703
19 *59:23 0.000423114
20 *59:24 0.000383343
21 *59:25 0.00026703
22 *59:27 0.000383343
23 *59:29 6.96988e-05
24 *59:30 0.000278795
25 *59:31 0.00026137
26 *59:32 3.33787e-05
27 *59:33 0.000243946
28 *59:34 3.33787e-05
29 *59:35 0.000243946
30 *59:37 8.71235e-05
31 *59:38 0.000331069
32 *59:39 0.000331069
33 *59:40 3.33787e-05
34 *59:41 0.000121973
35 *59:42 0.000116825
36 *59:43 3.33787e-05
37 *59:44 0.000307806
38 *59:45 3.33787e-05
39 *59:46 0.000116825
40 *59:48 1.66894e-05
41 *59:49 0.000238108
42 *59:50 3.33787e-05
43 *59:52 1.66894e-05
44 *59:53 0.000149663
45 *59:57 0.000216179
46 *59:58 6.65167e-05
47 *59:60 6.45093e-05
48 *59:61 0.000112891
49 *59:62 6.45093e-05
50 *59:63 6.65167e-05
51 *59:64 0.000225783
52 *59:65 0.000166292
53 *59:66 0.000225783
54 *59:67 9.97751e-05
55 *59:69 6.45093e-05
56 *59:70 0.000161273
57 *59:71 0.000112891
58 *59:72 0.000161273
59 *59:73 6.45093e-05
60 *59:74 0.000133033
61 *59:75 4.98875e-05
62 *59:76 4.98875e-05
63 *59:77 0.000249438
64 *59:78 4.98875e-05
65 *59:79 0.000365842
66 *59:80 0.000116404
67 *59:81 9.6764e-05
68 *59:83 0.000315954
69 *59:84 0.000177401
70 *59:86 0.000112891
71 *691:A 0.000177401
72 *59:89 0.000161273
73 *59:90 0.000161273
74 *59:91 6.45093e-05
75 *59:92 9.6764e-05
76 *59:93 4.8382e-05
77 *59:94 0.000232808
78 *59:95 0.000149663
79 *59:96 0.000232808
80 *59:97 0.000365842
81 *59:99 0.000299325
82 *59:100 9.6764e-05
83 *59:101 9.97751e-05
84 *59:103 9.6764e-05
85 *59:104 0.000232808
86 *59:105 0.000166292
87 *59:106 0.000216179
88 *59:107 8.31459e-05
89 *59:108 0.000116404
90 *59:111 0.000166292
91 *59:112 0.000133033

*RES
1 *59:112 *673:B1 1.4
2 *59:111 *59:112 0.994306
3 *59:108 *59:111 0.248577
4 *59:107 *679:B1 1.4
5 *59:106 *671:B1 1.4
6 *59:105 *59:108 0.621441
7 *59:105 *59:107 0.621441
8 *59:104 *59:106 1.61575
9 *59:103 *59:105 1.4
10 *59:101 *59:104 0.124288
11 *59:100 *59:103 0.745698
12 *59:99 *669:B1 1.4
13 *59:99 *59:101 0.621441
14 *59:97 *59:100 1.4
15 *59:97 *59:99 1.61575
16 *59:96 *686:B1 1.4
17 *59:95 *59:97 1.11859
18 *59:94 *59:96 1.74004
19 *59:93 *59:95 1.4
20 *59:92 *59:94 1.4
21 *59:92 *59:93 0.372849
22 *59:91 *59:92 0.372849
23 *59:90 *59:91 0.124283
24 *59:89 *59:90 1.11855
25 *59:86 *59:89 0.124283
26 *59:84 *691:A 1.36711
27 *59:83 *520:SI 1.4
28 *59:81 *59:86 0.745698
29 *59:80 *682:B1 1.4
30 *59:79 *59:84 1.4
31 *59:79 *59:83 2.36148
32 *59:78 *677:A 1.4
33 *59:77 *59:81 1.4
34 *59:77 *59:80 0.870018
35 *59:76 *59:79 0.372865
36 *59:75 *59:78 0.372865
37 *59:74 *59:77 0.994306
38 *59:73 *59:76 1.4
39 *59:72 *59:75 1.4
40 *59:71 *59:74 1.4
41 *59:71 *59:73 0.497132
42 *59:70 *59:72 1.24283
43 *59:69 *59:71 0.372849
44 *59:67 *59:70 1.4
45 *59:66 *59:69 0.124283
46 *59:65 *486:B 1.4
47 *59:65 *59:67 0.74573
48 *59:64 *59:66 1.61568
49 *59:63 *59:65 0.497153
50 *59:62 *59:64 0.124283
51 *59:61 *59:63 1.4
52 *59:61 *59:62 0.372849
53 *59:60 *59:61 0.497132
54 *59:58 *59:60 1.4
55 *59:57 *687:B1 1.4
56 *59:57 *59:58 0.497153
57 *59:53 *59:57 1.11859
58 *59:52 *59:56 0.0878571
59 *59:52 *519:Q 1.4
60 *59:50 *685:B1 1.4
61 *59:49 *59:53 1.4
62 *59:48 *59:52 0.124283
63 *59:46 *684:S0 1.4
64 *59:45 *59:50 0.248566
65 *59:44 *59:49 1.74002
66 *59:44 *59:48 1.4
67 *59:43 *683:B1 1.4
68 *59:42 *59:46 0.869981
69 *59:41 *59:45 1.4
70 *59:41 *59:44 0.497155
71 *59:40 *59:43 0.248566
72 *59:39 *59:42 1.4
73 *59:39 *59:41 0.372866
74 *59:38 *59:40 1.4
75 *59:38 *59:39 1.98862
76 *59:37 *59:38 0.372866
77 *59:35 *59:37 0.248578
78 *59:34 *681:B1 1.4
79 *59:33 *59:35 1.49146
80 *59:32 *59:34 0.248566
81 *59:31 *59:33 0.248578
82 *59:30 *59:32 1.4
83 *59:30 *59:31 1.61575
84 *59:29 *59:30 0.372866
85 *59:27 *59:29 0.124289
86 *59:25 *674:B1 1.4
87 *59:24 *59:27 2.61006
88 *59:23 *680:B1 1.4
89 *59:22 *59:25 1.98853
90 *59:21 *59:24 0.124289
91 *59:20 *59:23 3.35563
92 *59:19 *59:22 1.4
93 *59:19 *59:21 0.372866
94 *59:18 *59:20 1.4
95 *59:18 *59:19 0.497155
96 *59:17 *59:18 0.372866
97 *59:16 *59:17 0.124289
98 *59:15 *59:16 3.23151
99 *59:13 *59:15 0.124289
100 *59:12 *678:B1 1.4
101 *59:11 *59:13 0.372866
102 *59:10 *59:12 1.11854
103 *59:10 *59:11 1.4
104 *59:9 *59:10 0.869979
105 *59:7 *59:9 0.124283
106 *59:6 *670:B1 1.4
107 *59:6 *59:7 0.248565
108 *59:5 *59:6 0.869979
109 *59:4 *59:5 1.4
110 *59:2 *59:4 0.99431
111 *59:1 *672:B1 1.4
112 *59:1 *59:2 1.4
113 *59:0 *59:1 0.220714
*END

*D_NET *60 0.00404311

*CONN
*I *494:Q O *C 47.415 72.355 *L 0 *D SDFFRHQX1
*I *685:B0 I *C 48.575 66.845 *L 0.00265 *D AOI22X1
*I *592:A I *C 50.895 76.995 *L 0.0017 *D MX2X1
*I *495:SI I *C 33.205 63.945 *L 0.00276 *D SDFFRHQX1

*CAP
1 *60:3 0.000104548
2 *60:4 0.000104548
3 *60:5 0.000550749
4 *60:6 0.000300408
5 *60:7 0.000283719
6 *60:8 0.000104548
7 *60:9 0.000540165
8 *60:10 3.33787e-05
9 *60:11 0.000104548
10 *60:12 0.00055759
11 *60:13 3.48494e-05
12 *60:15 0.000331069
13 *685:B0 3.48494e-05
14 *60:19 0.000331069
15 *60:20 0.000121973
16 *60:21 0.000104548
17 *60:22 0.000200272
18 *60:23 0.000200272

*RES
1 *60:23 *495:SI 1.4
2 *60:22 *60:23 1.4914
3 *60:21 *60:22 1.4
4 *60:20 *60:21 0.745732
5 *60:19 *60:20 0.124289
6 *60:15 *60:19 2.2372
7 *60:14 *592:A 1.4
8 *60:14 *60:17 0.220714
9 *60:13 *685:B0 0.248578
10 *60:12 *60:15 0.124289
11 *60:11 *60:14 1.4
12 *60:10 *60:13 1.4
13 *60:9 *60:12 3.85295
14 *60:8 *60:11 0.745732
15 *60:7 *60:10 0.248566
16 *60:7 *60:9 1.4
17 *60:6 *60:8 1.4
18 *60:5 *60:7 1.86424
19 *60:5 *60:6 2.23709
20 *60:4 *60:5 1.4
21 *60:3 *60:4 0.745732
22 *60:1 *60:3 1.4
23 *60:1 *494:Q 1.4
24 *60:0 *60:1 0.220714
*END

*D_NET *61 0.0018887

*CONN
*I *687:B0 I *C 53.795 63.655 *L 0.00265 *D AOI22X1
*I *493:Q O *C 54.085 68.585 *L 0 *D SDFFRHQX1
*I *494:SI I *C 55.825 71.775 *L 0.00276 *D SDFFRHQX1
*I *623:A I *C 56.405 76.995 *L 0.0017 *D MX2X1

*CAP
1 *687:B0 1.61273e-05
2 *61:1 1.61273e-05
3 *61:2 6.65167e-05
4 *61:3 8.31459e-05
5 *61:4 0.000182921
6 *61:5 0.000182921
7 *61:6 6.65167e-05
8 *61:7 0.00019955
9 *61:9 0.000149663
10 *61:10 9.6764e-05
11 *61:11 9.6764e-05
12 *61:12 3.32584e-05
13 *61:13 0.000133033
14 *61:14 0.000116404
15 *61:16 0.000133033
16 *61:17 0.000133033
17 *61:18 9.97751e-05
18 *61:19 8.31459e-05

*RES
1 *61:19 *623:A 1.4
2 *61:18 *61:19 0.621441
3 *61:17 *61:18 0.124288
4 *61:16 *61:17 0.870018
5 *61:14 *61:16 0.124288
6 *61:13 *494:SI 1.4
7 *61:13 *61:14 0.74573
8 *61:12 *61:13 0.248577
9 *61:11 *61:12 1.4
10 *61:10 *61:11 0.745698
11 *61:9 *61:10 1.4
12 *61:7 *61:9 1.11859
13 *61:7 *493:Q 1.4
14 *61:6 *61:7 0.372865
15 *61:5 *61:6 0.124288
16 *61:4 *61:5 1.24288
17 *61:3 *61:4 0.124288
18 *61:2 *61:3 0.497153
19 *61:1 *61:2 1.4
20 *687:B0 *61:1 0.124283
*END

*D_NET *62 0.00180713

*CONN
*I *682:B0 I *C 60.465 66.845 *L 0.00265 *D AOI22X1
*I *493:SI I *C 62.495 69.165 *L 0.00276 *D SDFFRHQX1
*I *492:Q O *C 66.555 68.585 *L 0 *D SDFFRHQX1
*I *620:A I *C 66.845 74.385 *L 0.0017 *D MX2X1

*CAP
1 *682:B0 0.000112891
2 *62:1 0.000129019
3 *62:2 0.00024191
4 *62:3 0.000225783
5 *62:4 0.000116404
6 *62:5 8.31459e-05
7 *62:6 0.000116404
8 *62:7 0.000182921
9 *62:10 0.000116404
10 *62:11 0.000249438
11 *62:12 0.000232808

*RES
1 *62:12 *620:A 1.4
2 *62:11 *62:12 1.74004
3 *62:10 *62:11 0.124288
4 *62:7 *62:10 0.74573
5 *62:7 *492:Q 1.4
6 *62:6 *493:SI 1.4
7 *62:5 *62:7 0.621441
8 *62:4 *62:6 0.870018
9 *62:3 *62:5 1.4
10 *62:2 *62:4 1.4
11 *62:2 *62:3 1.73996
12 *62:1 *62:2 0.124283
13 *682:B0 *62:1 0.869981
*END

*D_NET *63 0.00268102

*CONN
*I *492:SI I *C 74.965 69.165 *L 0.00276 *D SDFFRHQX1
*I *686:B0 I *C 65.685 68.875 *L 0.00265 *D AOI22X1
*I *618:A I *C 75.545 76.995 *L 0.0017 *D MX2X1
*I *491:Q O *C 68.875 67.135 *L 0 *D SDFFRHQX1

*CAP
1 *63:1 1.66292e-05
2 *63:2 0.000548329
3 *63:3 1.66292e-05
4 *63:4 3.22547e-05
5 *63:5 0.000516075
6 *63:7 0.000465617
7 *63:8 0.000116404
8 *63:9 0.000465617
9 *63:10 0.000116404
10 *63:13 1.61273e-05
11 *63:14 0.000193528
12 *491:Q 0.000177401

*RES
1 *63:14 *491:Q 1.36711
2 *63:13 *63:14 0.124283
3 *63:10 *63:13 1.4
4 *63:9 *618:A 1.4
5 *63:8 *686:B0 1.4
6 *63:8 *63:10 0.870018
7 *63:7 *63:9 3.48007
8 *63:5 *63:8 1.4
9 *63:4 *63:7 1.4
10 *63:3 *492:SI 1.4
11 *63:2 *63:5 3.97706
12 *63:2 *63:4 0.248566
13 *63:1 *63:3 0.124288
14 *63:1 *63:2 1.4
15 *63:0 *63:1 0.0878571
*END

*D_NET *64 0.00232822

*CONN
*I *679:B0 I *C 68.295 63.655 *L 0.00265 *D AOI22X1
*I *490:Q O *C 69.165 61.915 *L 0 *D SDFFRHQX1
*I *491:SI I *C 77.285 66.555 *L 0.00276 *D SDFFRHQX1
*I *616:A I *C 76.705 71.775 *L 0.0017 *D MX2X1

*CAP
1 *679:B0 1.61273e-05
2 *64:1 1.61273e-05
3 *64:2 0.000249438
4 *64:3 0.000116404
5 *64:4 0.000133033
6 *64:5 0.00048382
7 *64:6 3.22547e-05
8 *64:7 0.00048382
9 *490:Q 3.22547e-05
10 *64:9 4.98875e-05
11 *64:10 0.000349213
12 *64:11 0.000332584
13 *64:13 3.32584e-05

*RES
1 *64:13 *616:A 1.4
2 *64:11 *64:13 0.248577
3 *64:10 *491:SI 1.4
4 *64:10 *64:11 2.23719
5 *64:9 *64:10 0.372865
6 *64:7 *64:9 1.4
7 *64:6 *490:Q 0.248566
8 *64:5 *64:7 3.72849
9 *64:4 *64:6 1.4
10 *64:3 *64:5 1.4
11 *64:2 *64:4 0.994306
12 *64:2 *64:3 0.870018
13 *64:1 *64:2 1.4
14 *679:B0 *64:1 0.124283
*END

*D_NET *65 0.00297199

*CONN
*I *609:A I *C 74.675 58.725 *L 0.0017 *D MX2X1
*I *490:SI I *C 77.575 61.335 *L 0.00276 *D SDFFRHQX1
*I *669:B0 I *C 66.555 58.435 *L 0.00265 *D AOI22X1
*I *489:Q O *C 68.585 47.705 *L 0 *D SDFFRHQX1

*CAP
1 *65:2 0.000209655
2 *65:4 0.000161273
3 *65:5 0.000161273
4 *65:6 0.000149663
5 *65:7 0.000403183
6 *65:8 0.000149663
7 *65:9 0.000306419
8 *65:11 1.61273e-05
9 *65:12 6.65167e-05
10 *65:13 8.31459e-05
11 *65:15 0.000216179
12 *65:16 0.000216179
13 *65:17 6.65167e-05
14 *65:18 6.65167e-05
15 *65:19 0.00020584
16 *65:20 0.00020658
17 *65:21 6.94766e-05
18 *65:22 5.21074e-05
19 *65:23 8.2839e-05
20 *489:Q 8.2839e-05

*RES
1 *65:23 *489:Q 0.621415
2 *65:22 *65:23 1.4
3 *65:21 *65:22 0.372849
4 *65:20 *65:21 0.124283
5 *65:19 *65:20 1.36713
6 *65:18 *65:19 0.124288
7 *65:17 *65:18 0.372865
8 *65:16 *65:17 0.124288
9 *65:15 *65:16 1.49146
10 *65:13 *65:15 0.124288
11 *65:12 *669:B0 1.4
12 *65:12 *65:13 0.497153
13 *65:11 *65:12 1.4
14 *65:9 *65:11 0.124283
15 *65:8 *490:SI 1.4
16 *65:7 *65:9 2.23709
17 *65:6 *65:8 1.11859
18 *65:5 *65:7 0.869981
19 *65:4 *65:6 1.4
20 *65:2 *65:5 0.372849
21 *65:2 *65:4 1.24283
22 *65:1 *609:A 1.4
23 *65:1 *65:2 1.4
24 *65:0 *65:1 0.03
*END

*D_NET *66 0.00331052

*CONN
*I *671:B0 I *C 66.845 53.215 *L 0.00265 *D AOI22X1
*I *488:Q O *C 68.585 46.255 *L 0 *D SDFFRHQX1
*I *489:SI I *C 76.995 48.285 *L 0.00276 *D SDFFRHQX1
*I *612:A I *C 77.575 56.115 *L 0.0017 *D MX2X1

*CAP
1 *66:0 0.000155952
2 *66:1 6.94766e-05
3 *66:2 0.000155212
4 *66:3 0.000260537
5 *66:4 6.65167e-05
6 *66:5 0.00020843
7 *66:6 0.000579873
8 *66:7 4.98875e-05
9 *66:8 9.94068e-05
10 *66:9 0.000579873
11 *488:Q 9.94068e-05
12 *66:12 0.000121584
13 *66:13 8.68457e-05
14 *66:14 5.21074e-05
15 *66:15 0.000304875
16 *66:17 0.000304135
17 *66:18 6.65167e-05
18 *66:19 4.98875e-05

*RES
1 *66:19 *612:A 1.4
2 *66:18 *66:19 0.372865
3 *66:17 *66:18 0.124288
4 *66:15 *66:17 2.11287
5 *66:14 *489:SI 1.4
6 *66:13 *66:15 0.124283
7 *66:12 *66:14 0.372849
8 *66:12 *66:13 0.497132
9 *66:9 *66:12 1.4
10 *66:8 *488:Q 0.745698
11 *66:7 *671:B0 1.4
12 *66:6 *66:9 4.3499
13 *66:5 *66:8 1.4
14 *66:4 *66:7 0.372865
15 *66:3 *66:6 1.4
16 *66:3 *66:5 1.49139
17 *66:2 *66:4 0.124288
18 *66:1 *66:3 0.372849
19 *66:0 *66:2 0.994266
20 *66:0 *66:1 0.124283
*END

*D_NET *67 0.0037116

*CONN
*I *673:B0 I *C 68.875 58.435 *L 0.00265 *D AOI22X1
*I *487:Q O *C 70.905 42.485 *L 0 *D SDFFRHQX1
*I *488:SI I *C 76.995 45.675 *L 0.00276 *D SDFFRHQX1
*I *610:A I *C 78.445 50.895 *L 0.0017 *D MX2X1

*CAP
1 *67:0 0.000182921
2 *67:1 0.000251288
3 *67:2 0.000166292
4 *67:3 0.000269397
5 *67:5 0.000243168
6 *67:6 0.000225799
7 *67:7 0.000173691
8 *67:8 0.000173691
9 *67:9 6.94766e-05
10 *67:10 5.21074e-05
11 *67:11 6.62712e-05
12 *67:12 0.000414195
13 *67:13 5.21074e-05
14 *67:14 0.000429135
15 *67:15 5.21074e-05
16 *67:16 8.12115e-05
17 *67:17 6.94766e-05
18 *67:19 0.000334893
19 *67:20 6.94766e-05
20 *67:21 0.000334893

*RES
1 *67:21 *610:A 1.4
2 *67:20 *488:SI 1.4
3 *67:19 *67:21 2.73423
4 *67:17 *67:20 0.497132
5 *67:16 *67:19 1.4
6 *67:15 *487:Q 1.4
7 *67:14 *67:17 1.4
8 *67:14 *67:16 0.621415
9 *67:13 *67:15 0.372849
10 *67:12 *67:14 2.60994
11 *67:12 *67:13 1.4
12 *67:11 *67:12 0.497132
13 *67:10 *67:11 1.4
14 *67:9 *67:10 0.372849
15 *67:8 *67:9 0.124283
16 *67:7 *67:8 1.11855
17 *67:6 *67:7 0.124283
18 *67:5 *67:6 1.49139
19 *67:3 *67:5 0.248566
20 *67:2 *673:B0 1.4
21 *67:1 *67:3 1.74002
22 *67:0 *67:2 1.24288
23 *67:0 *67:1 0.124288
*END

*D_NET *68 0.00389047

*CONN
*I *502:Q O *C 33.495 68.585 *L 0 *D SDFFRHQX1
*I *503:SI I *C 32.335 66.555 *L 0.00276 *D SDFFRHQX1
*I *684:B I *C 48.865 63.945 *L 0.00184 *D MX2X1
*I *601:A I *C 38.135 76.995 *L 0.0017 *D MX2X1

*CAP
1 *68:3 0.000365919
2 *68:4 0.000871235
3 *68:5 6.96988e-05
4 *68:6 0.00059244
5 *68:7 5.00681e-05
6 *68:8 0.000116825
7 *68:9 6.96988e-05
8 *68:10 6.67574e-05
9 *68:11 0.000116825
10 *68:12 5.22741e-05
11 *68:13 0.00025034
12 *68:15 0.000283719
13 *68:16 0.00025034
14 *68:17 0.000283719
15 *68:18 0.000183583
16 *68:20 0.000183583
17 *68:21 5.00681e-05
18 *68:22 3.33787e-05

*RES
1 *68:22 *601:A 1.4
2 *68:21 *68:22 0.248566
3 *68:20 *68:21 0.124283
4 *68:18 *68:20 1.24283
5 *68:17 *684:B 1.4
6 *68:16 *68:18 0.124283
7 *68:15 *68:17 2.11281
8 *68:13 *68:16 1.73996
9 *68:12 *68:15 1.4
10 *68:11 *503:SI 1.4
11 *68:10 *68:13 0.124283
12 *68:9 *68:12 0.372866
13 *68:8 *68:11 0.869981
14 *68:7 *68:10 0.372849
15 *68:6 *68:9 0.124289
16 *68:5 *68:8 1.4
17 *68:4 *68:7 1.4
18 *68:4 *68:6 4.10153
19 *68:3 *68:5 0.497155
20 *68:3 *68:4 2.11291
21 *68:1 *68:3 1.4
22 *68:1 *502:Q 1.4
23 *68:0 *68:1 0.220714
*END

*D_NET *69 0.00303541

*CONN
*I *501:Q O *C 30.885 73.805 *L 0 *D SDFFRHQX1
*I *600:A I *C 36.395 66.555 *L 0.0017 *D MX2X1
*I *502:SI I *C 41.905 69.165 *L 0.00276 *D SDFFRHQX1
*I *683:B0 I *C 43.065 66.845 *L 0.00265 *D AOI22X1

*CAP
1 *69:0 5.00681e-05
2 *69:1 5.00681e-05
3 *69:2 8.71235e-05
4 *69:4 0.000104548
5 *69:5 0.000209096
6 *69:6 0.000209096
7 *69:7 6.96988e-05
8 *69:8 5.22741e-05
9 *69:9 0.000216962
10 *69:10 0.000433923
11 *69:11 0.000331069
12 *69:12 0.000216962
13 *69:13 0.000400768
14 *69:15 6.96988e-05
15 *69:16 6.67574e-05
16 *69:17 0.000200272
17 *69:18 6.67574e-05
18 *69:19 0.000200272

*RES
1 *69:19 *683:B0 1.4
2 *69:18 *502:SI 1.4
3 *69:17 *69:19 1.4914
4 *69:16 *69:18 0.497132
5 *69:15 *69:17 1.4
6 *69:13 *69:16 1.4
7 *69:13 *69:15 0.497155
8 *69:12 *600:A 1.4
9 *69:11 *69:13 2.36149
10 *69:10 *69:12 1.61568
11 *69:10 *69:11 1.4
12 *69:9 *69:10 1.61568
13 *69:8 *69:9 1.4
14 *69:7 *69:8 0.372866
15 *69:6 *69:7 0.124289
16 *69:5 *69:6 1.36718
17 *69:4 *69:5 0.124289
18 *69:2 *69:4 0.621444
19 *69:1 *501:Q 1.4
20 *69:0 *69:2 1.4
21 *69:0 *69:1 0.372849
*END

*D_NET *70 0.003494

*CONN
*I *599:A I *C 28.855 76.995 *L 0.0017 *D MX2X1
*I *500:Q O *C 24.505 72.355 *L 0 *D SDFFRHQX1
*I *681:B0 I *C 34.945 66.845 *L 0.00265 *D AOI22X1
*I *501:SI I *C 39.295 74.385 *L 0.00276 *D SDFFRHQX1

*CAP
1 *70:2 0.000617389
2 *70:4 0.000365919
3 *70:5 0.000251471
4 *70:6 0.000116825
5 *70:7 0.000250734
6 *70:8 0.000584127
7 *70:9 0.000250734
8 *70:10 0.00026137
9 *70:11 0.000467302
10 *70:13 0.00026137
11 *70:15 3.33787e-05
12 *70:16 3.33787e-05

*RES
1 *70:16 *501:SI 1.4
2 *70:15 *70:16 0.248566
3 *70:13 *70:15 1.4
4 *70:11 *681:B0 1.4
5 *70:10 *70:13 1.86433
6 *70:9 *500:Q 1.4
7 *70:8 *70:11 3.47992
8 *70:8 *70:10 1.4
9 *70:7 *70:9 1.98852
10 *70:6 *70:8 0.869981
11 *70:5 *70:7 1.4
12 *70:4 *70:6 1.4
13 *70:2 *70:5 1.86433
14 *70:2 *70:4 2.61006
15 *70:1 *599:A 1.4
16 *70:1 *70:2 1.4
17 *70:0 *70:1 0.220714
*END

*D_NET *71 0.00336361

*CONN
*I *499:Q O *C 10.585 73.805 *L 0 *D SDFFRHQX1
*I *598:A I *C 15.805 76.995 *L 0.0017 *D MX2X1
*I *680:B0 I *C 25.955 74.095 *L 0.00265 *D AOI22X1
*I *500:SI I *C 32.915 71.775 *L 0.00276 *D SDFFRHQX1

*CAP
1 *71:1 1.56709e-05
2 *71:2 7.83545e-05
3 *71:3 6.26836e-05
4 *71:4 0.000265621
5 *71:5 0.000812488
6 *71:6 0.00096416
7 *71:7 7.83545e-05
8 *71:8 0.000417293
9 *71:9 7.83545e-05
10 *71:10 7.83545e-05
11 *71:11 0.000216962
12 *71:12 7.83545e-05
13 *71:14 0.000216962

*RES
1 *71:14 *500:SI 1.4
2 *71:12 *680:B0 1.4
3 *71:11 *71:14 1.61568
4 *71:10 *598:A 1.4
5 *71:9 *71:12 0.621413
6 *71:8 *71:11 1.4
7 *71:7 *71:10 0.621413
8 *71:6 *71:9 1.4
9 *71:6 *71:8 2.98293
10 *71:5 *71:7 1.4
11 *71:5 *71:6 4.35011
12 *71:4 *71:5 2.11291
13 *71:3 *71:4 1.4
14 *71:2 *71:3 0.497131
15 *71:1 *71:2 0.124283
16 *499:Q *71:1 1.4
*END

*D_NET *72 0.0026588

*CONN
*I *498:Q O *C 5.365 72.355 *L 0 *D SDFFRHQX1
*I *590:A I *C 8.555 74.385 *L 0.0017 *D MX2X1
*I *499:SI I *C 18.995 74.385 *L 0.00276 *D SDFFRHQX1
*I *678:B0 I *C 16.675 68.875 *L 0.00265 *D AOI22X1

*CAP
1 *72:3 0.000171873
2 *72:4 0.000171873
3 *72:5 0.000109696
4 *72:6 0.000109696
5 *72:7 0.00035937
6 *72:9 0.000374995
7 *72:10 0.000171873
8 *72:11 0.000171873
9 *72:12 6.24991e-05
10 *72:13 4.68743e-05
11 *72:14 6.26836e-05
12 *72:16 7.83545e-05
13 *72:18 0.000156709
14 *72:19 0.000156709
15 *72:20 0.000109696
16 *72:21 9.40254e-05
17 *72:22 0.000124998
18 *678:B0 0.000124998

*RES
1 *72:22 *678:B0 0.99431
2 *72:21 *72:22 1.4
3 *72:20 *72:21 0.745696
4 *72:19 *72:20 0.124283
5 *72:18 *72:19 1.11854
6 *72:16 *72:18 0.124283
7 *72:14 *499:SI 1.4
8 *72:14 *72:16 0.497131
9 *72:14 *72:15 0.220714
10 *72:13 *72:14 1.4
11 *72:12 *72:13 0.372866
12 *72:11 *72:12 0.124289
13 *72:10 *72:11 1.24289
14 *72:9 *72:10 0.124289
15 *72:7 *72:9 2.85864
16 *72:6 *590:A 1.4
17 *72:6 *72:7 1.4
18 *72:5 *72:6 0.869979
19 *72:4 *72:5 1.4
20 *72:3 *72:4 1.36718
21 *72:1 *72:3 1.4
22 *72:1 *498:Q 1.4
23 *72:0 *72:1 0.220714
*END

*D_NET *73 0.00306725

*CONN
*I *498:SI I *C 13.775 71.775 *L 0.00276 *D SDFFRHQX1
*I *670:B0 I *C 16.385 63.655 *L 0.00265 *D AOI22X1
*I *497:Q O *C 2.755 61.915 *L 0 *D SDFFRHQX1
*I *595:A I *C 3.335 58.725 *L 0.0017 *D MX2X1

*CAP
1 *73:2 0.000438785
2 *73:3 6.26836e-05
3 *73:4 0.000438785
4 *73:5 6.26836e-05
5 *73:6 0.000187497
6 *73:8 0.000140623
7 *73:9 6.24991e-05
8 *73:10 6.26836e-05
9 *73:11 0.000468743
10 *73:12 6.26836e-05
11 *73:13 0.000468743
12 *73:15 6.24991e-05
13 *73:16 4.68743e-05
14 *73:17 9.40254e-05
15 *73:18 0.000109696
16 *73:19 0.000156709
17 *73:20 3.13418e-05
18 *73:21 0.000109696

*RES
1 *73:21 *595:A 1.4
2 *73:20 *497:Q 1.4
3 *73:19 *73:21 0.869979
4 *73:19 *73:20 0.248565
5 *73:18 *73:19 0.124283
6 *73:17 *73:18 0.745696
7 *73:16 *73:17 1.4
8 *73:15 *73:16 0.372866
9 *73:13 *73:15 0.124289
10 *73:12 *670:B0 1.4
11 *73:11 *73:13 3.60437
12 *73:10 *73:12 0.497131
13 *73:9 *73:11 0.124289
14 *73:8 *73:10 1.4
15 *73:6 *73:9 0.372866
16 *73:6 *73:8 1.1186
17 *73:5 *498:SI 1.4
18 *73:4 *73:6 1.4
19 *73:3 *73:5 0.497131
20 *73:2 *73:4 3.47992
21 *73:1 *73:3 1.4
22 *73:1 *73:2 1.4
23 *73:0 *73:1 0.220714
*END

*D_NET *74 0.00172131

*CONN
*I *496:Q O *C 5.365 58.145 *L 0 *D SDFFRHQX1
*I *594:A I *C 6.235 56.115 *L 0.0017 *D MX2X1
*I *497:SI I *C 11.165 61.335 *L 0.00276 *D SDFFRHQX1
*I *672:B0 I *C 14.065 61.625 *L 0.00265 *D AOI22X1

*CAP
1 *74:1 4.70127e-05
2 *74:2 0.000235064
3 *74:3 7.83545e-05
4 *74:4 0.000109696
5 *74:5 0.000265621
6 *74:7 0.000421869
7 *74:8 0.000156248
8 *74:9 9.40254e-05
9 *74:10 0.000109696
10 *74:11 9.40254e-05
11 *74:12 0.000109696

*RES
1 *74:12 *672:B0 1.4
2 *74:11 *497:SI 1.4
3 *74:10 *74:12 0.869979
4 *74:9 *74:11 0.745696
5 *74:8 *74:10 1.4
6 *74:7 *74:9 1.4
7 *74:7 *74:8 1.24289
8 *74:5 *74:7 2.11291
9 *74:4 *594:A 1.4
10 *74:3 *74:5 1.4
11 *74:2 *74:4 0.869979
12 *74:2 *74:3 0.621413
13 *74:1 *74:2 0.372848
14 *496:Q *74:1 1.4
*END

*D_NET *75 0.0038065

*CONN
*I *496:SI I *C 13.775 58.725 *L 0.00276 *D SDFFRHQX1
*I *495:Q O *C 24.795 63.365 *L 0 *D SDFFRHQX1
*I *674:B0 I *C 27.115 61.625 *L 0.00265 *D AOI22X1
*I *593:A I *C 27.405 74.385 *L 0.0017 *D MX2X1

*CAP
1 *75:2 0.00032812
2 *75:4 0.00032812
3 *75:5 6.26836e-05
4 *75:6 7.83545e-05
5 *75:7 0.000156709
6 *75:8 0.000156709
7 *75:9 9.40254e-05
8 *75:10 7.83545e-05
9 *75:11 0.000265621
10 *495:Q 0.000265621
11 *75:13 4.70127e-05
12 *75:14 4.70127e-05
13 *75:15 0.000131298
14 *75:16 0.000131298
15 *75:17 0.000100136
16 *75:18 0.000100136
17 *75:19 5.00681e-05
18 *75:20 0.000317098
19 *75:22 0.000300408
20 *75:23 0.000400544
21 *75:24 0.000367166

*RES
1 *75:24 *593:A 1.4
2 *75:23 *75:24 2.73423
3 *75:22 *75:23 0.248566
4 *75:20 *75:22 1.98853
5 *75:19 *674:B0 1.4
6 *75:18 *75:20 0.372849
7 *75:17 *75:19 0.372849
8 *75:17 *75:18 0.372849
9 *75:16 *75:17 1.4
10 *75:15 *75:16 0.99431
11 *75:14 *75:15 1.4
12 *75:13 *75:14 0.372848
13 *495:Q *75:13 1.4
14 *75:11 *495:Q 2.11291
15 *75:10 *75:11 1.4
16 *75:9 *75:10 0.621413
17 *75:8 *75:9 0.124283
18 *75:7 *75:8 1.11854
19 *75:6 *75:7 0.124283
20 *75:5 *75:6 0.497131
21 *75:4 *75:5 1.4
22 *75:2 *75:4 2.61006
23 *75:1 *496:SI 1.4
24 *75:1 *75:2 1.4
25 *75:0 *75:1 0.220714
*END

*D_NET *76 0.00566402

*CONN
*I *511:SI I *C 73.225 56.115 *L 0.00276 *D SDFFRHQX1
*I *684:A I *C 47.705 63.945 *L 0.0017 *D MX2X1
*I *510:Q O *C 44.515 68.585 *L 0 *D SDFFRHQX1
*I *611:A I *C 45.385 71.775 *L 0.0017 *D MX2X1

*CAP
1 *76:2 3.22547e-05
2 *76:4 3.22547e-05
3 *76:5 0.000515504
4 *76:6 0.000515504
5 *76:7 4.8382e-05
6 *76:8 6.45093e-05
7 *76:9 0.000193528
8 *76:10 0.000193528
9 *76:11 0.000919258
10 *76:12 0.000919258
11 *76:13 0.000294274
12 *76:14 0.000504667
13 *76:15 0.000226521
14 *76:16 8.34468e-05
15 *76:17 5.00681e-05
16 *76:18 8.34468e-05
17 *76:19 0.000166894
18 *76:21 0.000166894
19 *76:22 0.000116825
20 *76:23 3.48494e-05
21 *76:24 0.000166894
22 *510:Q 3.48494e-05
23 *76:26 0.000183583
24 *76:27 0.000100136
25 *76:28 1.66894e-05

*RES
1 *76:28 *611:A 1.4
2 *76:27 *76:28 0.124283
3 *76:26 *76:27 0.621415
4 *76:24 *76:26 0.745698
5 *76:23 *510:Q 0.248578
6 *76:22 *76:24 0.497132
7 *76:22 *76:23 1.4
8 *76:21 *76:22 0.372849
9 *76:19 *76:21 0.869981
10 *76:18 *684:A 1.4
11 *76:17 *76:19 0.372849
12 *76:16 *76:18 0.621415
13 *76:15 *76:17 1.4
14 *76:14 *76:16 1.4
15 *76:14 *76:15 1.61575
16 *76:13 *76:14 1.98862
17 *76:12 *76:13 0.124283
18 *76:11 *76:12 6.95985
19 *76:10 *76:11 0.124283
20 *76:9 *76:10 1.36711
21 *76:8 *76:9 0.124283
22 *76:7 *76:8 0.372849
23 *76:6 *76:7 1.4
24 *76:5 *76:6 3.85294
25 *76:4 *76:5 1.4
26 *76:2 *76:4 0.248566
27 *76:1 *511:SI 1.4
28 *76:1 *76:2 1.4
29 *76:0 *76:1 0.220714
*END

*D_NET *77 0.00336121

*CONN
*I *509:Q O *C 35.235 72.355 *L 0 *D SDFFRHQX1
*I *608:A I *C 41.035 74.385 *L 0.0017 *D MX2X1
*I *683:A0 I *C 41.905 66.555 *L 0.00264 *D AOI22X1
*I *510:SI I *C 52.925 69.165 *L 0.00276 *D SDFFRHQX1

*CAP
1 *77:1 3.33787e-05
2 *77:2 3.33787e-05
3 *77:3 5.22741e-05
4 *77:4 6.96988e-05
5 *77:5 0.00026137
6 *77:6 0.00026137
7 *77:7 6.96988e-05
8 *77:8 5.22741e-05
9 *77:9 0.000367166
10 *77:10 8.34468e-05
11 *77:11 0.000350476
12 *77:13 0.000711169
13 *77:14 6.67574e-05
14 *77:15 0.000711169
15 *77:16 5.22741e-05
16 *77:17 6.65167e-05
17 *683:A0 5.22741e-05
18 *77:19 6.65167e-05

*RES
1 *77:19 *510:SI 1.4
2 *77:17 *77:19 0.497153
3 *77:16 *683:A0 0.372866
4 *77:15 *77:17 1.4
5 *77:14 *77:16 1.4
6 *77:13 *77:15 5.09582
7 *77:11 *77:14 0.497132
8 *77:11 *77:13 1.4
9 *77:10 *608:A 1.4
10 *77:9 *77:11 2.11281
11 *77:9 *77:10 0.621415
12 *77:8 *77:9 1.4
13 *77:7 *77:8 0.372866
14 *77:6 *77:7 0.124289
15 *77:5 *77:6 1.74004
16 *77:4 *77:5 0.124289
17 *77:3 *77:4 0.372866
18 *77:2 *77:3 1.4
19 *77:1 *77:2 0.248566
20 *509:Q *77:1 1.4
*END

*D_NET *78 0.00407668

*CONN
*I *509:SI I *C 43.645 71.775 *L 0.00276 *D SDFFRHQX1
*I *681:A0 I *C 33.785 66.555 *L 0.00264 *D AOI22X1
*I *607:A I *C 31.465 76.995 *L 0.0017 *D MX2X1
*I *508:Q O *C 23.925 68.585 *L 0 *D SDFFRHQX1

*CAP
1 *78:2 5.22741e-05
2 *78:4 6.96988e-05
3 *78:5 0.000348494
4 *78:6 0.000365919
5 *78:7 0.000226521
6 *78:8 0.000365919
7 *78:9 0.000278795
8 *78:10 0.000100136
9 *78:11 8.71235e-05
10 *78:12 8.71235e-05
11 *78:13 0.000116825
12 *78:14 3.48494e-05
13 *78:15 0.00029532
14 *78:16 0.000183583
15 *78:17 0.000150204
16 *78:18 0.00029172
17 *78:19 0.000166894
18 *78:20 0.000166894
19 *78:21 0.000140623
20 *78:23 0.000133515
21 *78:24 0.000109373
22 *78:25 0.000116825
23 *78:26 9.40254e-05
24 *78:28 9.40254e-05

*RES
1 *78:28 *508:Q 1.4
2 *78:26 *78:28 0.745696
3 *78:25 *607:A 1.4
4 *78:24 *78:26 1.4
5 *78:23 *78:25 0.869981
6 *78:21 *78:24 0.870021
7 *78:20 *78:23 0.124283
8 *78:19 *681:A0 1.4
9 *78:18 *78:21 0.248578
10 *78:17 *78:20 1.11855
11 *78:16 *78:19 1.24283
12 *78:15 *78:18 1.86433
13 *78:14 *78:17 1.4
14 *78:13 *78:16 0.124283
15 *78:12 *78:15 0.248578
16 *78:11 *78:14 0.248578
17 *78:10 *78:13 0.745698
18 *78:9 *78:12 0.372866
19 *78:9 *78:11 0.372866
20 *78:8 *78:10 1.4
21 *78:8 *78:9 1.24289
22 *78:7 *78:8 1.36718
23 *78:6 *78:7 0.248578
24 *78:5 *78:6 2.36149
25 *78:4 *78:5 0.124289
26 *78:2 *78:4 0.372866
27 *78:1 *509:SI 1.4
28 *78:1 *78:2 1.4
29 *78:0 *78:1 0.220714
*END

*D_NET *79 0.00318918

*CONN
*I *507:Q O *C 14.935 72.355 *L 0 *D SDFFRHQX1
*I *606:A I *C 20.735 74.385 *L 0.0017 *D MX2X1
*I *680:A0 I *C 24.795 74.385 *L 0.00264 *D AOI22X1
*I *508:SI I *C 32.335 69.165 *L 0.00276 *D SDFFRHQX1

*CAP
1 *79:1 6.26836e-05
2 *79:2 6.26836e-05
3 *79:3 4.68743e-05
4 *79:4 6.24991e-05
5 *79:5 0.000171873
6 *79:6 0.000171873
7 *79:7 0.000124998
8 *79:8 0.000296871
9 *79:9 0.000187497
10 *79:10 4.70127e-05
11 *79:11 3.13418e-05
12 *79:12 4.70127e-05
13 *79:13 6.26836e-05
14 *79:15 3.13418e-05
15 *79:16 3.12496e-05
16 *79:17 1.56248e-05
17 *680:A0 3.12496e-05
18 *79:19 0.000143323
19 *79:20 0.000145123
20 *79:21 0.000365919
21 *79:22 0.000348494
22 *79:23 0.000350476
23 *79:24 0.000350476

*RES
1 *79:24 *508:SI 1.4
2 *79:23 *79:24 2.60994
3 *79:22 *79:23 1.4
4 *79:21 *79:22 2.48577
5 *79:20 *79:21 0.124289
6 *79:19 *79:20 0.99431
7 *79:17 *79:19 0.124289
8 *79:16 *680:A0 0.248578
9 *79:15 *79:17 1.4
10 *79:13 *79:16 1.4
11 *79:13 *79:15 0.248565
12 *79:12 *606:A 1.4
13 *79:11 *79:13 0.248565
14 *79:10 *79:12 0.372848
15 *79:9 *79:11 1.4
16 *79:8 *79:10 1.4
17 *79:8 *79:9 1.49147
18 *79:7 *79:8 0.870021
19 *79:6 *79:7 0.124289
20 *79:5 *79:6 1.24289
21 *79:4 *79:5 0.124289
22 *79:3 *79:4 0.372866
23 *79:2 *79:3 1.4
24 *79:1 *79:2 0.497131
25 *507:Q *79:1 1.4
*END

*D_NET *80 0.00319124

*CONN
*I *506:Q O *C 5.655 68.585 *L 0 *D SDFFRHQX1
*I *678:A0 I *C 15.515 69.165 *L 0.00264 *D AOI22X1
*I *507:SI I *C 23.345 71.775 *L 0.00276 *D SDFFRHQX1
*I *605:A I *C 10.295 76.995 *L 0.0017 *D MX2X1

*CAP
1 *80:3 0.000203122
2 *80:4 0.000531242
3 *80:5 0.000749989
4 *80:6 0.000423114
5 *80:7 0.000421869
6 *80:8 3.13418e-05
7 *80:9 0.000470127
8 *80:10 0.000109696
9 *80:11 3.13418e-05
10 *80:12 7.83545e-05
11 *80:13 0.000109696
12 *80:15 3.13418e-05

*RES
1 *80:15 *605:A 1.4
2 *80:13 *507:SI 1.4
3 *80:12 *80:15 0.248565
4 *80:11 *678:A0 1.4
5 *80:10 *80:13 0.869979
6 *80:9 *80:12 0.372848
7 *80:8 *80:11 0.248565
8 *80:7 *80:10 1.4
9 *80:6 *80:9 3.35563
10 *80:5 *80:8 1.4
11 *80:5 *80:7 3.3558
12 *80:4 *80:6 1.4
13 *80:4 *80:5 2.61006
14 *80:3 *80:4 1.61575
15 *80:1 *80:3 1.4
16 *80:1 *506:Q 1.4
17 *80:0 *80:1 0.220714
*END

*D_NET *81 0.00247222

*CONN
*I *506:SI I *C 14.065 69.165 *L 0.00276 *D SDFFRHQX1
*I *670:A0 I *C 15.225 63.945 *L 0.00264 *D AOI22X1
*I *604:A I *C 3.625 69.165 *L 0.0017 *D MX2X1
*I *505:Q O *C 2.755 63.365 *L 0 *D SDFFRHQX1

*CAP
1 *81:2 9.37487e-05
2 *81:4 4.68743e-05
3 *81:5 6.24991e-05
4 *81:6 0.000109696
5 *81:7 0.000421869
6 *81:8 0.000125367
7 *81:9 0.000421869
8 *81:10 0.000188051
9 *81:11 0.000124998
10 *81:12 0.00017238
11 *81:13 0.000109373
12 *81:15 4.70127e-05
13 *81:16 0.000156709
14 *81:18 0.000203722
15 *81:19 0.000141038
16 *81:20 4.70127e-05

*RES
1 *81:20 *505:Q 1.4
2 *81:19 *81:20 0.372848
3 *81:18 *81:19 0.745696
4 *81:16 *81:18 0.869979
5 *81:15 *604:A 1.4
6 *81:15 *81:16 0.372848
7 *81:13 *81:15 1.4
8 *81:12 *670:A0 1.4
9 *81:11 *81:13 0.870021
10 *81:10 *81:12 1.36711
11 *81:9 *81:11 0.124289
12 *81:8 *81:10 0.124283
13 *81:7 *81:9 3.23151
14 *81:6 *81:8 0.869979
15 *81:5 *81:7 0.124289
16 *81:4 *81:6 1.4
17 *81:2 *81:5 0.372866
18 *81:2 *81:4 0.372866
19 *81:1 *506:SI 1.4
20 *81:1 *81:2 1.4
21 *81:0 *81:1 0.220714
*END

*D_NET *82 0.00153326

*CONN
*I *504:Q O *C 5.075 67.135 *L 0 *D SDFFRHQX1
*I *505:SI I *C 11.165 63.945 *L 0.00276 *D SDFFRHQX1
*I *603:A I *C 12.905 63.945 *L 0.0017 *D MX2X1
*I *672:A0 I *C 12.905 61.335 *L 0.00264 *D AOI22X1

*CAP
1 *82:3 0.00032812
2 *82:4 0.000421869
3 *82:5 9.37487e-05
4 *82:6 0.000109696
5 *82:7 0.000109696
6 *82:8 0.000109696
7 *82:9 0.000235064
8 *82:11 0.000125367

*RES
1 *82:11 *672:A0 1.4
2 *82:9 *603:A 1.4
3 *82:9 *82:11 0.994261
4 *82:8 *505:SI 1.4
5 *82:7 *82:9 0.869979
6 *82:6 *82:8 0.869979
7 *82:5 *82:7 1.4
8 *82:4 *82:6 1.4
9 *82:4 *82:5 0.745733
10 *82:3 *82:4 2.61006
11 *82:1 *82:3 1.4
12 *82:1 *504:Q 1.4
13 *82:0 *82:1 0.220714
*END

*D_NET *83 0.00234648

*CONN
*I *504:SI I *C 13.485 66.555 *L 0.00276 *D SDFFRHQX1
*I *503:Q O *C 23.925 67.135 *L 0 *D SDFFRHQX1
*I *602:A I *C 21.895 69.165 *L 0.0017 *D MX2X1
*I *674:A0 I *C 25.955 61.335 *L 0.00264 *D AOI22X1

*CAP
1 *83:0 7.83545e-05
2 *83:1 3.13418e-05
3 *83:2 4.70127e-05
4 *83:3 0.000218747
5 *83:5 0.000249996
6 *83:6 0.000187497
7 *83:7 0.000171873
8 *83:8 6.24991e-05
9 *83:9 0.000171873
10 *503:Q 0.000109373
11 *83:11 1.56248e-05
12 *83:12 0.000109696
13 *83:13 0.000156709
14 *83:14 0.000109696
15 *83:15 0.000156709
16 *83:16 0.000109373
17 *83:18 0.000109373
18 *83:19 0.000125367
19 *83:20 0.000125367

*RES
1 *83:20 *674:A0 1.4
2 *83:19 *83:20 0.994261
3 *83:18 *83:19 1.4
4 *83:16 *83:18 0.870021
5 *83:15 *602:A 1.4
6 *83:14 *83:16 1.4
7 *83:13 *83:15 1.24283
8 *83:12 *83:14 0.869979
9 *83:11 *83:13 1.4
10 *503:Q *83:12 1.4
11 *83:9 *83:11 0.124289
12 *83:9 *503:Q 0.870021
13 *83:8 *83:9 0.372866
14 *83:7 *83:8 0.124289
15 *83:6 *83:7 1.24289
16 *83:5 *83:6 0.248578
17 *83:3 *83:5 1.74004
18 *83:2 *504:SI 1.4
19 *83:1 *83:3 1.4
20 *83:0 *83:2 0.372848
21 *83:0 *83:1 0.248565
*END

*D_NET *84 0.00361297

*CONN
*I *685:A0 I *C 47.415 66.555 *L 0.00264 *D AOI22X1
*I *518:Q O *C 50.025 73.805 *L 0 *D SDFFRHQX1
*I *624:A I *C 53.795 76.995 *L 0.0017 *D MX2X1
*I *519:SI I *C 57.855 66.555 *L 0.00276 *D SDFFRHQX1

*CAP
1 *84:1 0.000200272
2 *84:2 0.000216962
3 *84:3 0.00025034
4 *84:4 0.000233651
5 *84:5 0.000139398
6 *84:6 0.000358783
7 *518:Q 0.000139398
8 *84:8 0.000584566
9 *84:9 0.000225783
10 *84:10 0.000149663
11 *84:11 0.000216179
12 *84:12 0.000149663
13 *84:13 0.000232808
14 *84:15 0.00019955
15 *84:16 0.00019955
16 *84:17 6.65167e-05
17 *84:18 4.98875e-05

*RES
1 *84:18 *519:SI 1.4
2 *84:17 *84:18 0.372865
3 *84:16 *84:17 0.124288
4 *84:15 *84:16 1.36717
5 *84:13 *84:15 0.124288
6 *84:12 *624:A 1.4
7 *84:11 *84:13 1.61575
8 *84:10 *84:12 1.11859
9 *84:9 *84:11 1.4
10 *84:8 *84:10 1.4
11 *84:8 *84:9 1.73996
12 *84:6 *84:8 2.61003
13 *84:5 *518:Q 0.99431
14 *84:4 *84:6 1.4
15 *84:4 *84:5 1.4
16 *84:3 *84:4 1.73996
17 *84:2 *84:3 0.124283
18 *84:1 *84:2 1.4914
19 *685:A0 *84:1 1.4
*END

*D_NET *85 0.00243101

*CONN
*I *687:A0 I *C 52.635 63.945 *L 0.00264 *D AOI22X1
*I *517:Q O *C 56.985 72.355 *L 0 *D SDFFRHQX1
*I *622:A I *C 60.175 74.385 *L 0.0017 *D MX2X1
*I *518:SI I *C 58.435 74.385 *L 0.00276 *D SDFFRHQX1

*CAP
1 *85:0 1.61273e-05
2 *85:1 0.000282696
3 *687:A0 1.61273e-05
4 *85:3 0.000282696
5 *85:4 8.06367e-05
6 *85:5 9.6764e-05
7 *85:6 0.000145146
8 *85:7 0.000145146
9 *85:8 6.45093e-05
10 *85:9 4.8382e-05
11 *85:10 0.000149663
12 *85:11 0.000232808
13 *85:13 8.31459e-05
14 *85:14 6.45093e-05
15 *85:15 0.000177401
16 *85:16 0.000112891
17 *85:17 9.97751e-05
18 *85:18 9.97751e-05
19 *85:19 0.000116404
20 *85:20 9.97751e-05
21 *85:21 1.66292e-05

*RES
1 *85:21 *518:SI 1.4
2 *85:20 *622:A 1.4
3 *85:19 *85:21 0.124288
4 *85:18 *85:20 0.74573
5 *85:17 *85:19 0.74573
6 *85:16 *85:18 1.4
7 *85:15 *85:17 1.4
8 *85:15 *85:16 0.869981
9 *85:14 *85:15 0.497132
10 *85:13 *85:14 1.4
11 *85:11 *85:13 0.621441
12 *85:11 *517:Q 1.4
13 *85:10 *85:11 1.11859
14 *85:9 *85:10 1.4
15 *85:8 *85:9 0.372849
16 *85:7 *85:8 0.124283
17 *85:6 *85:7 0.994264
18 *85:5 *85:6 0.124283
19 *85:4 *85:5 0.621415
20 *85:3 *85:4 1.4
21 *85:1 *85:3 2.1129
22 *85:0 *687:A0 0.124283
23 *85:0 *85:1 1.4
*END

*D_NET *86 0.0024915

*CONN
*I *682:A0 I *C 59.305 66.555 *L 0.00264 *D AOI22X1
*I *517:SI I *C 65.395 71.775 *L 0.00276 *D SDFFRHQX1
*I *516:Q O *C 66.555 72.355 *L 0 *D SDFFRHQX1
*I *621:A I *C 70.325 76.995 *L 0.0017 *D MX2X1

*CAP
1 *86:1 0.000166292
2 *86:2 0.000166292
3 *86:3 0.000338674
4 *86:4 0.000338674
5 *86:5 0.000116404
6 *86:6 0.000166292
7 *86:7 8.31459e-05
8 *86:9 0.000232808
9 *86:10 3.32584e-05
10 *86:11 0.000182921
11 *86:12 3.32584e-05
12 *86:13 0.00024191
13 *86:14 1.66292e-05
14 *86:15 0.00024191
15 *86:17 6.65167e-05
16 *86:18 6.65167e-05

*RES
1 *86:18 *621:A 1.4
2 *86:17 *86:18 0.497153
3 *86:15 *86:17 1.4
4 *86:14 *516:Q 1.4
5 *86:13 *86:15 1.86425
6 *86:12 *86:14 0.124288
7 *86:11 *86:13 1.4
8 *86:10 *86:12 0.124288
9 *86:9 *86:11 1.36717
10 *86:9 *86:10 0.124288
11 *86:7 *86:9 0.248577
12 *86:6 *517:SI 1.4
13 *86:6 *86:7 0.372865
14 *86:5 *86:6 0.870018
15 *86:4 *86:5 1.4
16 *86:3 *86:4 2.60994
17 *86:2 *86:3 1.4
18 *86:1 *86:2 1.24288
19 *682:A0 *86:1 1.4
*END

*D_NET *87 0.00239173

*CONN
*I *686:A0 I *C 64.525 69.165 *L 0.00264 *D AOI22X1
*I *515:Q O *C 68.875 73.805 *L 0 *D SDFFRHQX1
*I *516:SI I *C 74.965 71.775 *L 0.00276 *D SDFFRHQX1
*I *619:A I *C 72.935 76.995 *L 0.0017 *D MX2X1

*CAP
1 *87:1 0.00019955
2 *87:2 0.00019955
3 *87:3 0.00024191
4 *87:4 0.000516075
5 *87:5 6.65167e-05
6 *87:6 0.000338674
7 *87:7 6.65167e-05
8 *87:8 6.45093e-05
9 *87:9 0.000216179
10 *87:11 4.98875e-05
11 *87:12 0.000232808
12 *87:13 4.98875e-05
13 *87:14 4.98875e-05
14 *87:16 6.65167e-05
15 *87:17 3.32584e-05

*RES
1 *87:17 *619:A 1.4
2 *87:16 *87:17 0.248577
3 *87:14 *87:16 0.248577
4 *87:13 *516:SI 1.4
5 *87:12 *87:14 0.124288
6 *87:11 *87:13 0.372865
7 *87:9 *87:12 1.61575
8 *87:8 *87:11 1.4
9 *87:7 *515:Q 1.4
10 *87:6 *87:9 1.4
11 *87:6 *87:8 0.497132
12 *87:5 *87:7 0.497153
13 *87:4 *87:6 2.11281
14 *87:4 *87:5 1.4
15 *87:3 *87:4 1.86425
16 *87:2 *87:3 1.4
17 *87:1 *87:2 1.49146
18 *686:A0 *87:1 1.4
*END

*D_NET *88 0.00262755

*CONN
*I *679:A0 I *C 67.135 63.945 *L 0.00264 *D AOI22X1
*I *514:Q O *C 69.165 63.365 *L 0 *D SDFFRHQX1
*I *617:A I *C 76.705 69.165 *L 0.0017 *D MX2X1
*I *515:SI I *C 77.285 74.385 *L 0.00276 *D SDFFRHQX1

*CAP
1 *88:1 1.66292e-05
2 *88:2 1.66292e-05
3 *88:4 0.000112891
4 *88:5 0.000532202
5 *88:7 0.000419311
6 *88:10 0.000299325
7 *88:11 0.000365842
8 *88:12 3.32584e-05
9 *88:13 0.000232808
10 *88:15 0.000216179
11 *88:16 3.32584e-05
12 *88:17 3.32584e-05
13 *88:18 0.000133033
14 *88:19 0.000149663
15 *88:20 3.32584e-05

*RES
1 *88:20 *515:SI 1.4
2 *88:19 *88:20 0.248577
3 *88:18 *88:19 0.870018
4 *88:17 *88:18 0.124288
5 *88:16 *88:17 0.124288
6 *88:15 *88:16 0.124288
7 *88:13 *88:15 1.49146
8 *88:12 *617:A 1.4
9 *88:11 *88:13 0.248577
10 *88:11 *88:12 0.248577
11 *88:10 *88:11 2.23719
12 *88:7 *88:10 1.4
13 *88:6 *88:9 0.220714
14 *88:6 *514:Q 1.4
15 *88:5 *88:7 3.23136
16 *88:5 *88:6 1.4
17 *88:4 *88:5 0.869981
18 *88:2 *88:4 1.4
19 *88:1 *679:A0 1.4
20 *88:1 *88:2 0.124288
21 *88:0 *88:1 0.212143
*END

*D_NET *89 0.00419769

*CONN
*I *513:Q O *C 68.295 51.475 *L 0 *D SDFFRHQX1
*I *669:A0 I *C 65.395 58.725 *L 0.00264 *D AOI22X1
*I *615:A I *C 77.865 53.505 *L 0.0017 *D MX2X1
*I *514:SI I *C 77.575 63.945 *L 0.00276 *D SDFFRHQX1

*CAP
1 *89:0 0.000182246
2 *513:Q 0.000182246
3 *89:2 0.000435688
4 *89:3 0.000435688
5 *89:4 6.83666e-05
6 *89:5 1.61273e-05
7 *89:6 8.49958e-05
8 *669:A0 1.61273e-05
9 *89:8 0.000166292
10 *89:9 0.000149663
11 *89:10 4.8382e-05
12 *89:11 6.45093e-05
13 *89:12 0.000145146
14 *89:13 0.000145146
15 *89:14 0.000354801
16 *89:15 0.000338674
17 *89:16 0.000266067
18 *89:17 0.000216179
19 *89:18 9.97751e-05
20 *89:19 0.000282696
21 *89:21 0.000266067
22 *89:22 0.000133033
23 *89:23 9.97751e-05

*RES
1 *89:23 *514:SI 1.4
2 *89:22 *89:23 0.74573
3 *89:21 *89:22 0.248577
4 *89:19 *89:21 1.74004
5 *89:18 *615:A 1.4
6 *89:17 *89:19 0.372865
7 *89:16 *89:18 0.74573
8 *89:16 *89:17 1.24288
9 *89:15 *89:16 1.4
10 *89:14 *89:15 2.60994
11 *89:13 *89:14 0.124283
12 *89:12 *89:13 0.994264
13 *89:11 *89:12 0.124283
14 *89:10 *89:11 0.372849
15 *89:9 *89:10 1.4
16 *89:8 *89:9 1.11859
17 *89:6 *89:8 0.124288
18 *89:5 *669:A0 0.124283
19 *89:4 *89:6 0.49714
20 *89:3 *89:5 1.4
21 *513:Q *89:4 1.4
22 *89:2 *89:3 3.23147
23 *89:0 *89:2 1.4
24 *89:0 *513:Q 1.36711
*END

*D_NET *90 0.00214187

*CONN
*I *512:Q O *C 67.715 52.925 *L 0 *D SDFFRHQX1
*I *671:A0 I *C 65.685 53.505 *L 0.00264 *D AOI22X1
*I *614:A I *C 74.965 56.115 *L 0.0017 *D MX2X1
*I *513:SI I *C 76.705 50.895 *L 0.00276 *D SDFFRHQX1

*CAP
1 *90:3 0.000467693
2 *90:4 0.000370929
3 *90:5 0.000112891
4 *90:6 6.45093e-05
5 *90:7 3.32584e-05
6 *90:8 4.8382e-05
7 *90:9 3.32584e-05
8 *90:10 0.000250548
9 *90:12 9.97751e-05
10 *90:13 0.000168142
11 *90:15 0.000104215
12 *90:16 8.68457e-05
13 *90:17 0.000115975
14 *90:18 0.000115975
15 *90:19 3.47383e-05
16 *90:20 3.47383e-05

*RES
1 *90:20 *513:SI 1.4
2 *90:19 *90:20 0.248566
3 *90:18 *90:19 1.4
4 *90:17 *90:18 0.869981
5 *90:16 *90:17 1.4
6 *90:15 *90:16 0.621415
7 *90:13 *90:15 0.124283
8 *90:12 *614:A 1.4
9 *90:10 *90:13 1.11859
10 *90:10 *90:12 0.74573
11 *90:9 *671:A0 1.4
12 *90:8 *90:10 1.4
13 *90:7 *90:9 0.248577
14 *90:6 *90:8 0.372849
15 *90:5 *90:7 1.4
16 *90:4 *90:6 0.124283
17 *90:3 *90:5 0.869981
18 *90:3 *90:4 2.73423
19 *90:1 *90:3 1.4
20 *90:1 *512:Q 1.4
21 *90:0 *90:1 0.220714
*END

*D_NET *91 0.00212064

*CONN
*I *512:SI I *C 76.125 53.505 *L 0.00276 *D SDFFRHQX1
*I *613:A I *C 72.065 58.725 *L 0.0017 *D MX2X1
*I *511:Q O *C 64.815 56.695 *L 0 *D SDFFRHQX1
*I *673:A0 I *C 67.715 58.725 *L 0.00264 *D AOI22X1

*CAP
1 *91:2 0.000225783
2 *91:4 0.000225783
3 *91:5 0.000249438
4 *91:6 0.000249438
5 *91:7 0.000274165
6 *91:8 0.000403183
7 *91:9 4.98875e-05
8 *91:10 0.000129019
9 *91:11 3.32584e-05
10 *91:12 4.98875e-05
11 *91:13 6.65167e-05
12 *91:14 3.32584e-05
13 *91:16 6.65167e-05
14 *91:17 3.22547e-05
15 *673:A0 3.22547e-05

*RES
1 *91:17 *673:A0 0.248566
2 *91:16 *511:Q 1.4
3 *91:14 *91:17 1.4
4 *91:13 *91:16 0.497153
5 *91:12 *613:A 1.4
6 *91:11 *91:14 0.248577
7 *91:10 *91:13 1.4
8 *91:9 *91:12 0.372865
9 *91:8 *91:11 1.4
10 *91:8 *91:10 0.994264
11 *91:7 *91:9 1.4
12 *91:7 *91:8 2.11281
13 *91:6 *91:7 1.4
14 *91:5 *91:6 1.86432
15 *91:4 *91:5 1.4
16 *91:2 *91:4 1.73996
17 *91:1 *512:SI 1.4
18 *91:1 *91:2 1.4
19 *91:0 *91:1 0.220714
*END

*D_NET *92 0.0103276

*CONN
*I *531:SI I *C 37.555 48.285 *L 0.00276 *D SDFFRHQX1
*I *561:B I *C 56.695 43.065 *L 0.00184 *D MX2X1
*I *530:Q O *C 56.115 47.705 *L 0 *D SDFFRHQX1
*I *829:S0 I *C 32.045 37.845 *L 0.00372 *D MXI2XL
*I *853:S0 I *C 61.045 37.845 *L 0.00372 *D MXI2XL
*I *830:S0 I *C 59.885 24.795 *L 0.00372 *D MXI2XL
*I *836:S0 I *C 38.135 24.795 *L 0.00372 *D MXI2XL
*I *861:S0 I *C 63.365 37.845 *L 0.00372 *D MXI2XL

*CAP
1 *92:4 0.000431439
2 *92:6 0.000655788
3 *92:7 0.00111393
4 *92:8 0.000224348
5 *92:9 0.00124647
6 *92:10 0.000138407
7 *92:11 0.000121584
8 *92:12 0.000198814
9 *92:13 5.19028e-05
10 *92:14 0.000207611
11 *92:15 0.000156322
12 *92:16 8.2839e-05
13 *92:17 0.000764242
14 *92:18 5.17727e-05
15 *92:19 0.000207611
16 *92:20 1.73691e-05
17 *92:21 0.000295275
18 *92:22 0.000115975
19 *92:23 0.000851088
20 *92:24 6.90303e-05
21 *92:25 8.65046e-05
22 *92:27 0.000277906
23 *92:28 9.94068e-05
24 *92:29 0.000257936
25 *92:30 0.000172576
26 *92:31 5.17727e-05
27 *92:33 8.68457e-05
28 *92:34 0.000187418
29 *92:35 0.000172576
30 *92:36 5.17727e-05
31 *92:37 0.000156322
32 *92:38 6.53139e-05
33 *92:39 0.000396924
34 *92:41 0.000132542
35 *92:42 6.94766e-05
36 *92:43 4.89854e-05
37 *92:44 0.000396924
38 *92:45 0.000132542
39 *92:48 0.000180167
40 *92:49 6.94766e-05
41 *92:50 0.000162909
42 *92:51 6.94766e-05

*RES
1 *92:51 *861:S0 1.4
2 *92:50 *836:S0 1.4
3 *92:49 *92:51 0.497132
4 *92:48 *92:50 1.24283
5 *92:45 *92:49 1.4
6 *92:44 *92:48 0.124283
7 *92:43 *830:S0 1.4
8 *92:42 *853:S0 1.4
9 *92:41 *92:45 0.994264
10 *92:39 *92:44 2.73424
11 *92:38 *92:43 0.372866
12 *92:37 *92:42 0.497132
13 *92:37 *92:41 1.4
14 *92:36 *829:S0 1.4
15 *92:35 *92:39 0.124283
16 *92:34 *92:38 0.124289
17 *92:33 *92:37 0.621415
18 *92:31 *92:36 0.37285
19 *92:30 *92:35 1.11855
20 *92:29 *92:34 1.24284
21 *92:28 *92:33 1.4
22 *92:27 *530:Q 1.4
23 *92:25 *92:31 1.4
24 *92:24 *92:30 0.124283
25 *92:23 *92:29 0.621415
26 *92:22 *92:28 0.745698
27 *92:21 *92:27 1.98853
28 *92:20 *561:B 1.4
29 *92:19 *92:25 0.621415
30 *92:18 *92:24 0.37285
31 *92:17 *92:23 5.46845
32 *92:16 *92:22 0.124283
33 *92:15 *92:21 0.124283
34 *92:15 *92:20 0.124283
35 *92:14 *92:19 0.86998
36 *92:13 *92:18 1.4
37 *92:12 *92:17 1.4
38 *92:12 *92:16 0.497132
39 *92:11 *92:15 0.86998
40 *92:10 *92:14 0.621415
41 *92:10 *92:13 0.372849
42 *92:9 *92:12 0.994264
43 *92:9 *92:11 1.4
44 *92:8 *92:10 1.4
45 *92:7 *92:9 8.07839
46 *92:6 *92:8 1.61568
47 *92:6 *92:7 1.4
48 *92:4 *92:6 3.10709
49 *92:2 *92:5 0.220714
50 *92:2 *92:4 1.4
51 *92:1 *531:SI 1.4
52 *92:1 *92:2 1.4
53 *92:0 *92:1 0.220714
*END

*D_NET *93 0.0105806

*CONN
*I *529:Q O *C 52.055 46.255 *L 0 *D SDFFRHQX1
*I *652:A I *C 53.795 40.455 *L 0.00157 *D NAND2XL
*I *530:SI I *C 64.525 48.285 *L 0.00276 *D SDFFRHQX1
*I *855:S0 I *C 65.685 37.845 *L 0.00372 *D MXI2XL
*I *826:S0 I *C 35.235 35.235 *L 0.00372 *D MXI2XL
*I *864:S0 I *C 65.105 35.235 *L 0.00372 *D MXI2XL
*I *824:S0 I *C 39.585 22.185 *L 0.00372 *D MXI2XL
*I *827:S0 I *C 57.565 24.795 *L 0.00372 *D MXI2XL

*CAP
1 *93:3 5.007e-05
2 *93:4 9.97734e-05
3 *93:5 6.62712e-05
4 *93:6 0.000277906
5 *93:7 0.000613009
6 *93:8 0.000277906
7 *93:9 0.000695848
8 *93:10 0.000861014
9 *93:11 9.94068e-05
10 *93:12 0.00020843
11 *652:A 4.97034e-05
12 *93:14 0.000811311
13 *93:15 6.94766e-05
14 *93:16 0.000225799
15 *93:17 3.45151e-05
16 *93:18 0.000191061
17 *93:19 1.73691e-05
18 *93:20 0.000448697
19 *93:21 0.00020843
20 *93:23 0.00050047
21 *93:24 0.000104215
22 *93:25 0.000173009
23 *93:26 0.000103545
24 *93:27 0.000138953
25 *93:28 0.000173009
26 *93:29 0.000258864
27 *93:30 0.000312645
28 *93:31 8.62879e-05
29 *93:32 0.000258864
30 *93:33 0.000225799
31 *93:35 8.62879e-05
32 *93:36 0.000183682
33 *93:37 3.47383e-05
34 *93:39 0.000181924
35 *93:41 4.64999e-05
36 *93:42 6.19999e-05
37 *93:43 0.0001395
38 *93:44 0.0010479
39 *93:45 0.0001085
40 *93:46 0.0010479

*RES
1 *93:48 *827:S0 1.4
2 *93:48 *93:49 0.220714
3 *93:46 *93:48 1.4
4 *93:45 *824:S0 1.4
5 *93:44 *93:46 7.70554
6 *93:43 *93:45 0.869984
7 *93:43 *93:44 1.4
8 *93:42 *93:43 0.248567
9 *93:41 *93:42 0.248567
10 *93:39 *93:41 0.124283
11 *93:37 *864:S0 1.4
12 *93:36 *93:39 1.24283
13 *93:35 *826:S0 1.4
14 *93:33 *93:37 0.248566
15 *93:32 *93:36 0.124283
16 *93:31 *93:35 0.621417
17 *93:30 *855:S0 1.4
18 *93:30 *93:33 1.36711
19 *93:29 *93:32 1.73997
20 *93:28 *93:31 1.4
21 *93:27 *93:30 0.86998
22 *93:26 *93:29 0.124283
23 *93:25 *93:28 1.24283
24 *93:24 *93:27 0.124283
25 *93:23 *93:26 0.621417
26 *93:23 *93:25 1.4
27 *93:21 *93:24 0.621415
28 *93:20 *93:23 2.9828
29 *93:19 *530:SI 1.4
30 *93:18 *93:21 0.86998
31 *93:17 *93:20 0.248567
32 *93:16 *93:19 0.124283
33 *93:15 *93:18 0.497132
34 *93:14 *93:17 1.4
35 *93:12 *93:16 1.49139
36 *93:11 *93:15 1.4
37 *93:10 *93:14 5.8413
38 *93:10 *652:A 0.372849
39 *93:9 *93:12 1.4
40 *93:9 *93:11 0.745698
41 *93:8 *93:10 1.4
42 *93:7 *93:9 4.47419
43 *93:6 *93:8 1.98853
44 *93:5 *93:7 0.124283
45 *93:4 *93:6 1.4
46 *93:4 *93:5 0.372849
47 *93:3 *93:4 0.372849
48 *93:1 *93:3 1.4
49 *93:1 *529:Q 1.4
50 *93:0 *93:1 0.03
*END

*D_NET *94 0.0120487

*CONN
*I *854:S0 I *C 63.945 40.455 *L 0.00372 *D MXI2XL
*I *529:SI I *C 60.465 45.675 *L 0.00276 *D SDFFRHQX1
*I *834:S0 I *C 56.115 22.185 *L 0.00372 *D MXI2XL
*I *863:S0 I *C 62.785 35.235 *L 0.00372 *D MXI2XL
*I *660:A I *C 48.285 50.895 *L 0.00157 *D NAND2XL
*I *528:Q O *C 43.355 42.485 *L 0 *D SDFFRHQX1
*I *832:S0 I *C 32.915 35.235 *L 0.00372 *D MXI2XL
*I *867:S0 I *C 37.265 22.185 *L 0.00372 *D MXI2XL

*CAP
1 *94:2 0.000215381
2 *94:4 0.000480466
3 *94:6 0.000225799
4 *94:7 0.000104215
5 *94:8 0.000265085
6 *94:9 0.000225799
7 *94:10 0.000121584
8 *94:11 0.000948539
9 *94:12 6.62712e-05
10 *94:13 0.000243168
11 *94:14 0.000981196
12 *94:15 6.62712e-05
13 *94:16 0.000416859
14 *94:17 0.000130628
15 *94:18 8.68457e-05
16 *94:19 0.000191061
17 *94:21 9.79709e-05
18 *94:22 8.68457e-05
19 *94:23 0.000248517
20 *94:26 0.000331356
21 *94:27 0.000540067
22 *94:28 0.000803246
23 *94:29 0.000346019
24 *94:30 3.45151e-05
25 *94:31 0.000431439
26 *94:32 3.45151e-05
27 *94:33 0.000431439
28 *94:35 0.000207611
29 *528:Q 5.19028e-05
30 *94:37 0.000155708
31 *94:38 0.000189833
32 *94:39 0.000224348
33 *94:40 0.000448697
34 *94:41 0.000414182
35 *94:42 8.65046e-05
36 *94:43 0.000346019
37 *94:44 0.000259514
38 *94:45 8.62879e-05
39 *94:46 0.000120803
40 *94:47 0.000103545
41 *94:48 0.000120803
42 *94:49 0.000293379
43 *94:51 0.000293379
44 *94:52 0.000254151
45 *94:53 0.000236894

*RES
1 *94:53 *867:S0 1.4
2 *94:52 *94:53 1.86425
3 *94:51 *94:52 0.124283
4 *94:49 *94:51 1.98853
5 *94:48 *832:S0 1.4
6 *94:47 *94:49 0.124283
7 *94:46 *94:48 0.869984
8 *94:45 *94:47 0.621417
9 *94:44 *94:46 1.4
10 *94:43 *94:45 1.4
11 *94:43 *94:44 1.86424
12 *94:42 *94:43 0.621415
13 *94:41 *94:42 1.4
14 *94:40 *94:41 2.9828
15 *94:39 *94:40 0.248567
16 *94:38 *94:39 1.36712
17 *94:37 *94:38 1.4
18 *94:35 *94:37 1.11855
19 *94:35 *528:Q 0.372849
20 *94:33 *94:35 1.4
21 *94:32 *660:A 1.4
22 *94:31 *94:33 3.10709
23 *94:30 *94:32 0.248567
24 *94:29 *94:31 1.4
25 *94:28 *94:30 1.4
26 *94:28 *94:29 2.48566
27 *94:27 *94:28 3.35564
28 *94:26 *94:27 0.621415
29 *94:23 *94:26 1.86424
30 *94:22 *863:S0 1.4
31 *94:21 *834:S0 1.4
32 *94:19 *94:23 1.4
33 *94:18 *94:22 0.621415
34 *94:17 *94:21 0.745732
35 *94:16 *529:SI 1.4
36 *94:16 *94:19 1.36711
37 *94:15 *94:18 1.4
38 *94:14 *94:17 0.248577
39 *94:13 *94:16 1.61568
40 *94:12 *94:15 0.497132
41 *94:11 *94:14 6.8356
42 *94:10 *94:13 0.124283
43 *94:9 *94:12 1.4
44 *94:8 *94:11 1.4
45 *94:7 *94:10 0.745697
46 *94:6 *94:9 1.61568
47 *94:4 *94:8 1.98853
48 *94:4 *94:7 1.4
49 *94:2 *94:6 1.4
50 *94:2 *94:5 0.220714
51 *94:2 *94:4 1.61568
52 *94:1 *854:S0 1.4
53 *94:1 *94:2 1.4
54 *94:0 *94:1 0.220714
*END

*D_NET *95 0.0125254

*CONN
*I *872:S0 I *C 34.075 19.575 *L 0.00372 *D MXI2XL
*I *823:S0 I *C 53.795 19.575 *L 0.00372 *D MXI2XL
*I *865:S0 I *C 60.465 35.235 *L 0.00372 *D MXI2XL
*I *849:S0 I *C 62.205 32.625 *L 0.00372 *D MXI2XL
*I *528:SI I *C 51.765 43.065 *L 0.00276 *D SDFFRHQX1
*I *659:A I *C 37.845 43.065 *L 0.00157 *D NAND2XL
*I *527:Q O *C 30.305 51.475 *L 0 *D SDFFRHQX1
*I *873:S0 I *C 30.595 35.235 *L 0.00372 *D MXI2XL

*CAP
1 *95:2 0.000207889
2 *95:4 0.000225213
3 *95:5 0.000433101
4 *95:6 0.000450426
5 *95:7 0.000225213
6 *95:8 0.000207889
7 *95:9 0.000323409
8 *95:10 0.000322131
9 *95:11 6.41864e-05
10 *95:12 9.62795e-05
11 *95:13 8.0233e-05
12 *95:14 4.89854e-05
13 *95:15 0.000112326
14 *95:16 4.89854e-05
15 *95:17 9.62795e-05
16 *95:19 0.000192559
17 *95:20 0.000192559
18 *95:21 6.41864e-05
19 *95:22 4.81398e-05
20 *95:23 1.63285e-05
21 *95:24 0.000793975
22 *95:25 0.000968708
23 *95:26 0.000347383
24 *95:27 0.000138953
25 *95:28 0.000277906
26 *95:30 3.47383e-05
27 *95:31 1.73691e-05
28 *95:33 0.000497401
29 *95:34 0.000497401
30 *95:35 6.90303e-05
31 *95:36 8.62879e-05
32 *95:37 0.000172576
33 *95:38 0.000155318
34 *95:39 0.000536329
35 *95:42 0.00055363
36 *95:43 0.00019031
37 *95:44 0.00019031
38 *95:45 0.000138407
39 *95:46 0.000121107
40 *95:47 8.62879e-05
41 *95:48 8.62879e-05
42 *95:50 0.000276815
43 *95:51 0.000484426
44 *95:52 0.000207611
45 *95:53 0.000465954
46 *95:54 0.000103545
47 *95:55 0.000465954
48 *95:56 0.000138061
49 *95:57 0.000121107
50 *95:58 0.000276121
51 *95:59 0.000121107
52 *95:60 0.000241606
53 *95:61 0.000103545
54 *95:63 0.000103545

*RES
1 *95:63 *873:S0 1.4
2 *95:61 *95:63 0.7457
3 *95:60 *527:Q 1.4
4 *95:59 *95:61 1.4
5 *95:58 *95:60 1.73997
6 *95:57 *95:59 0.86998
7 *95:56 *95:58 0.248567
8 *95:55 *95:57 1.4
9 *95:54 *95:56 0.7457
10 *95:53 *95:55 3.35565
11 *95:52 *95:54 1.4
12 *95:51 *95:53 1.4
13 *95:51 *95:52 1.49139
14 *95:50 *95:51 1.98853
15 *95:48 *95:50 1.4
16 *95:47 *659:A 1.4
17 *95:47 *95:48 0.621417
18 *95:46 *95:47 1.4
19 *95:45 *95:46 0.86998
20 *95:44 *95:45 0.124283
21 *95:43 *95:44 1.24283
22 *95:42 *95:43 0.124283
23 *95:39 *95:42 3.85277
24 *95:38 *528:SI 1.4
25 *95:38 *95:40 0.220714
26 *95:38 *95:39 1.4
27 *95:37 *95:38 1.11855
28 *95:36 *95:37 0.124283
29 *95:35 *95:36 0.497134
30 *95:34 *95:35 1.4
31 *95:33 *95:34 3.72849
32 *95:31 *95:33 1.4
33 *95:30 *849:S0 1.4
34 *95:28 *95:31 0.124283
35 *95:27 *95:30 0.248566
36 *95:26 *865:S0 1.4
37 *95:26 *95:28 1.86424
38 *95:25 *95:27 0.745697
39 *95:25 *95:26 0.621415
40 *95:24 *95:25 5.71713
41 *95:23 *95:24 0.124289
42 *95:22 *95:23 1.4
43 *95:21 *95:22 0.372849
44 *95:20 *95:21 0.124283
45 *95:19 *95:20 1.36711
46 *95:17 *95:19 0.124283
47 *95:16 *823:S0 1.4
48 *95:15 *95:17 0.621415
49 *95:14 *95:16 0.372866
50 *95:13 *95:15 0.248566
51 *95:12 *95:14 1.4
52 *95:12 *95:13 0.372849
53 *95:11 *95:12 0.372849
54 *95:10 *95:11 0.124283
55 *95:9 *95:10 2.23709
56 *95:8 *95:9 0.124283
57 *95:7 *95:8 1.36711
58 *95:6 *95:7 0.248566
59 *95:5 *95:6 2.98279
60 *95:4 *95:5 0.124283
61 *95:2 *95:4 1.49139
62 *95:1 *872:S0 1.4
63 *95:1 *95:2 1.4
64 *95:0 *95:1 0.220714
*END

*D_NET *96 0.011576

*CONN
*I *833:S0 I *C 27.115 35.235 *L 0.00372 *D MXI2XL
*I *526:Q O *C 28.275 42.485 *L 0 *D SDFFRHQX1
*I *866:S0 I *C 29.435 19.575 *L 0.00372 *D MXI2XL
*I *662:A I *C 39.005 45.675 *L 0.00157 *D NAND2XL
*I *527:SI I *C 38.715 50.895 *L 0.00276 *D SDFFRHQX1
*I *859:S0 I *C 55.245 35.235 *L 0.00372 *D MXI2XL
*I *825:S0 I *C 49.735 19.575 *L 0.00372 *D MXI2XL
*I *847:S0 I *C 59.885 30.015 *L 0.00372 *D MXI2XL

*CAP
1 *96:1 1.73009e-05
2 *96:2 6.90303e-05
3 *96:3 1.73009e-05
4 *96:4 0.000293379
5 *96:5 0.000310636
6 *96:6 0.000224348
7 *96:7 1.72576e-05
8 *96:8 0.000310636
9 *96:9 0.000258864
10 *96:12 0.000327894
11 *96:14 0.000386939
12 *96:16 8.62879e-05
13 *96:17 0.000386939
14 *96:18 0.000640134
15 *96:19 0.000103944
16 *96:20 0.000640134
17 *96:21 0.000103944
18 *96:22 0.000552242
19 *96:23 0.000124
20 *96:24 0.000310636
21 *96:25 0.000483212
22 *96:26 0.000124
23 *96:27 0.000241606
24 *96:29 0.000657435
25 *96:31 1.73009e-05
26 *96:33 3.45151e-05
27 *96:34 0.00099429
28 *96:35 1.73009e-05
29 *96:36 3.45151e-05
30 *96:37 0.000336854
31 *96:38 0.000414182
32 *96:40 0.000103545
33 *96:42 5.21074e-05
34 *96:43 0.000448697
35 *96:44 0.000103545
36 *96:45 5.21074e-05
37 *96:46 0.000516212
38 *96:49 0.000248517
39 *96:51 0.000497196
40 *96:52 0.000248517
41 *96:53 6.19999e-05
42 *96:54 3.47383e-05
43 *96:55 4.64999e-05
44 *96:56 5.21074e-05
45 *96:58 0.000295275
46 *96:59 0.000277906

*RES
1 *96:59 *847:S0 1.4
2 *96:58 *96:59 1.98853
3 *96:56 *96:58 0.124283
4 *96:55 *825:S0 1.4
5 *96:54 *96:56 0.248566
6 *96:53 *96:55 0.37285
7 *96:52 *96:54 1.4
8 *96:51 *96:53 0.124283
9 *96:49 *96:52 1.86424
10 *96:46 *96:51 3.7285
11 *96:45 *859:S0 1.4
12 *96:45 *96:49 1.4
13 *96:45 *96:48 0.220714
14 *96:44 *527:SI 1.4
15 *96:43 *96:46 0.248567
16 *96:42 *96:45 0.372849
17 *96:40 *96:44 0.7457
18 *96:38 *96:43 2.9828
19 *96:37 *96:42 1.4
20 *96:36 *662:A 1.4
21 *96:35 *96:40 1.4
22 *96:35 *96:39 0.0878571
23 *96:34 *96:38 1.4
24 *96:34 *96:37 2.48566
25 *96:33 *96:36 0.248567
26 *96:31 *96:35 0.124283
27 *96:29 *96:34 4.72275
28 *96:28 *96:33 1.4
29 *96:28 *96:32 0.220714
30 *96:27 *96:31 1.4
31 *96:26 *866:S0 1.4
32 *96:25 *96:29 1.4
33 *96:24 *96:28 1.4
34 *96:24 *96:27 1.73997
35 *96:23 *96:26 0.994267
36 *96:22 *96:25 3.47994
37 *96:22 *96:24 0.497134
38 *96:21 *96:23 1.4
39 *96:20 *96:22 1.4
40 *96:19 *96:21 0.745697
41 *96:18 *96:20 4.59847
42 *96:17 *96:19 1.4
43 *96:16 *96:18 1.4
44 *96:14 *96:17 2.9828
45 *96:12 *96:16 0.621417
46 *96:12 *526:Q 1.4
47 *96:11 *96:14 1.4
48 *96:11 *96:13 0.220714
49 *96:9 *96:12 1.73997
50 *96:8 *96:11 1.4
51 *96:7 *833:S0 1.4
52 *96:6 *96:9 0.124283
53 *96:5 *96:8 2.2371
54 *96:4 *96:7 0.124283
55 *96:4 *96:6 1.4914
56 *96:3 *96:5 1.4
57 *96:2 *96:4 0.497134
58 *96:1 *96:3 0.124283
59 *96:1 *96:2 1.4
60 *96:0 *96:1 0.0878571
*END

*D_NET *97 0.0113507

*CONN
*I *525:Q O *C 15.805 47.705 *L 0 *D SDFFRHQX1
*I *655:A I *C 20.735 43.065 *L 0.00157 *D NAND2XL
*I *526:SI I *C 36.685 43.065 *L 0.00276 *D SDFFRHQX1
*I *839:S0 I *C 21.895 32.625 *L 0.00372 *D MXI2XL
*I *871:S0 I *C 22.185 19.575 *L 0.00372 *D MXI2XL
*I *850:S0 I *C 52.345 30.015 *L 0.00372 *D MXI2XL
*I *860:S0 I *C 50.895 35.235 *L 0.00372 *D MXI2XL
*I *838:S0 I *C 42.485 22.185 *L 0.00372 *D MXI2XL

*CAP
1 *97:3 0.000238618
2 *97:4 0.000238618
3 *97:5 0.000151726
4 *97:6 0.000185443
5 *97:7 0.000151726
6 *97:8 0.000118009
7 *97:9 9.54472e-05
8 *97:11 0.00092578
9 *97:12 0.000864934
10 *97:13 0.000590045
11 *97:14 6.92037e-05
12 *97:16 0.000708054
13 *97:17 0.000328718
14 *97:20 0.000134867
15 *97:22 0.000311417
16 *97:23 0.000396955
17 *97:24 0.000570931
18 *97:25 0.000489869
19 *97:26 0.000570931
20 *97:27 0.000266591
21 *97:28 6.88372e-05
22 *97:29 0.000156818
23 *97:30 5.15362e-05
24 *97:32 0.000468967
25 *97:33 0.000764242
26 *97:34 0.000553211
27 *97:35 5.15362e-05
28 *97:36 0.000257936
29 *97:37 3.31356e-05
30 *97:38 5.15362e-05
31 *97:39 0.000553731
32 *97:40 3.31356e-05
33 *97:41 1.72576e-05
34 *97:42 0.000553731
35 *97:44 1.72576e-05
36 *97:45 0.000155
37 *97:50 0.000155

*RES
1 *97:50 *838:S0 1.4
2 *97:45 *97:50 1.24283
3 *97:44 *860:S0 1.4
4 *97:44 *97:48 0.212143
5 *97:43 *850:S0 1.4
6 *97:43 *97:46 0.220714
7 *97:42 *97:45 1.4
8 *97:41 *97:44 0.124283
9 *97:40 *97:43 1.4
10 *97:39 *97:42 3.97705
11 *97:38 *97:41 1.4
12 *97:37 *97:40 0.248566
13 *97:36 *97:39 1.4
14 *97:35 *97:38 0.372849
15 *97:34 *97:37 1.4
16 *97:34 *97:36 1.86426
17 *97:33 *97:35 1.4
18 *97:33 *97:34 2.11281
19 *97:32 *97:33 3.35564
20 *97:30 *97:32 1.4
21 *97:29 *871:S0 1.4
22 *97:28 *97:30 0.372849
23 *97:27 *97:29 1.24289
24 *97:26 *97:28 0.124283
25 *97:25 *97:27 0.870021
26 *97:24 *97:26 3.97705
27 *97:23 *97:25 2.85864
28 *97:22 *97:24 0.124283
29 *97:20 *97:23 0.124289
30 *97:17 *97:22 2.11281
31 *97:16 *839:S0 1.4
32 *97:16 *97:20 0.870021
33 *97:15 *526:SI 1.4
34 *97:15 *97:18 0.220714
35 *97:14 *97:17 0.248566
36 *97:13 *97:16 4.35011
37 *97:12 *97:15 1.4
38 *97:12 *97:14 0.248566
39 *97:11 *97:13 1.4
40 *97:11 *97:12 6.08994
41 *97:9 *97:11 0.745733
42 *97:8 *655:A 1.4
43 *97:8 *97:9 1.4
44 *97:7 *97:8 0.870021
45 *97:6 *97:7 0.248578
46 *97:5 *97:6 1.1186
47 *97:4 *97:5 1.4
48 *97:3 *97:4 1.86433
49 *97:1 *97:3 1.4
50 *97:1 *525:Q 1.4
51 *97:0 *97:1 0.220714
*END

*D_NET *98 0.0120798

*CONN
*I *862:S0 I *C 47.705 37.845 *L 0.00372 *D MXI2XL
*I *852:S0 I *C 50.025 30.015 *L 0.00372 *D MXI2XL
*I *837:S0 I *C 34.945 22.185 *L 0.00372 *D MXI2XL
*I *869:S0 I *C 17.835 30.015 *L 0.00372 *D MXI2XL
*I *831:S0 I *C 17.835 19.575 *L 0.00372 *D MXI2XL
*I *656:A I *C 18.995 53.505 *L 0.00157 *D NAND2XL
*I *524:Q O *C 12.325 46.255 *L 0 *D SDFFRHQX1
*I *525:SI I *C 24.215 48.285 *L 0.00276 *D SDFFRHQX1

*CAP
1 *98:2 8.65046e-05
2 *98:4 8.65046e-05
3 *98:5 0.000448697
4 *98:6 0.000673045
5 *98:7 0.000224348
6 *98:8 5.19028e-05
7 *98:9 0.000346019
8 *98:10 5.19028e-05
9 *98:11 0.00036332
10 *98:12 5.17727e-05
11 *98:13 0.000155708
12 *98:14 5.17727e-05
13 *98:15 0.000155708
14 *98:17 0.000467125
15 *98:18 0.000449824
16 *98:19 0.000297454
17 *98:20 0.000138061
18 *98:21 0.000236894
19 *98:22 5.19028e-05
20 *98:23 0.000155
21 *98:24 6.92037e-05
22 *98:25 7.74999e-05
23 *98:26 0.000207611
24 *98:28 0.000207611
25 *98:29 0.000672422
26 *98:30 0.000655121
27 *98:31 0.000234253
28 *98:32 0.00085978
29 *98:33 0.000216218
30 *98:34 0.000842922
31 *98:36 0.000313637
32 *98:37 0.000202301
33 *98:38 0.000313637
34 *98:39 0.000455178
35 *98:40 6.27273e-05
36 *98:41 0.000477236
37 *98:42 0.000286593
38 *98:43 4.70455e-05
39 *98:44 0.000143171
40 *98:45 0.000349973
41 *98:46 0.000112665
42 *98:48 0.000143171
43 *98:49 5.05753e-05
44 *98:50 9.58067e-05
45 *98:51 0.000143171
46 *98:52 5.05753e-05
47 *98:54 6.36315e-05
48 *98:56 4.77236e-05
49 *98:57 6.74337e-05
50 *98:58 6.74337e-05

*RES
1 *98:58 *525:SI 1.4
2 *98:57 *98:58 0.497155
3 *98:56 *98:57 1.4
4 *98:54 *98:56 0.372866
5 *98:52 *524:Q 1.4
6 *98:51 *98:54 0.124289
7 *98:50 *656:A 1.4
8 *98:49 *98:52 0.372866
9 *98:48 *98:51 0.99431
10 *98:46 *98:50 0.745705
11 *98:45 *98:49 1.4
12 *98:44 *98:48 0.124289
13 *98:43 *831:S0 1.4
14 *98:42 *98:46 0.124289
15 *98:41 *98:45 2.73435
16 *98:41 *98:44 0.99431
17 *98:40 *98:43 0.372866
18 *98:39 *98:42 1.98862
19 *98:39 *98:41 1.4
20 *98:38 *98:40 0.124289
21 *98:37 *98:39 1.36718
22 *98:36 *98:38 2.36149
23 *98:34 *98:37 0.124289
24 *98:33 *98:36 0.124289
25 *98:32 *869:S0 1.4
26 *98:32 *98:34 6.09015
27 *98:31 *98:33 1.49146
28 *98:31 *98:32 0.248578
29 *98:30 *98:31 1.4
30 *98:29 *98:30 4.97147
31 *98:28 *98:29 0.124283
32 *98:26 *98:28 1.36711
33 *98:25 *837:S0 1.4
34 *98:24 *98:26 0.124283
35 *98:23 *98:25 0.621417
36 *98:22 *98:24 0.372849
37 *98:21 *98:23 0.621417
38 *98:20 *98:22 1.4
39 *98:19 *98:21 1.24283
40 *98:19 *98:20 0.994267
41 *98:18 *98:19 1.4
42 *98:17 *98:18 3.23136
43 *98:15 *98:17 0.124283
44 *98:14 *852:S0 1.4
45 *98:13 *98:15 0.994263
46 *98:12 *98:14 0.37285
47 *98:11 *98:13 0.124283
48 *98:10 *98:12 1.4
49 *98:9 *98:11 2.48566
50 *98:8 *98:10 0.372849
51 *98:7 *98:9 1.4
52 *98:6 *98:8 1.4
53 *98:6 *98:7 1.61568
54 *98:5 *98:6 3.23137
55 *98:4 *98:5 1.4
56 *98:2 *98:4 0.621415
57 *98:1 *862:S0 1.4
58 *98:1 *98:2 1.4
59 *98:0 *98:1 0.220714
*END

*D_NET *99 0.0119808

*CONN
*I *868:S0 I *C 15.515 22.185 *L 0.00372 *D MXI2XL
*I *870:S0 I *C 32.625 22.185 *L 0.00372 *D MXI2XL
*I *835:S0 I *C 16.675 35.235 *L 0.00372 *D MXI2XL
*I *858:S0 I *C 48.575 35.235 *L 0.00372 *D MXI2XL
*I *851:S0 I *C 50.315 32.625 *L 0.00372 *D MXI2XL
*I *579:B I *C 21.025 50.895 *L 0.00184 *D MX2X1
*I *524:SI I *C 20.735 45.675 *L 0.00276 *D SDFFRHQX1
*I *523:Q O *C 9.425 52.925 *L 0 *D SDFFRHQX1

*CAP
1 *99:2 0.000948872
2 *99:4 0.000948872
3 *99:5 0.000186
4 *99:7 0.0002015
5 *99:10 0.000549606
6 *99:11 0.000534106
7 *99:12 0.000987434
8 *99:13 0.000467125
9 *99:14 0.00060542
10 *99:15 0.00019031
11 *99:16 0.000270434
12 *99:17 0.000138407
13 *99:18 0.000270434
14 *99:19 0.00019031
15 *99:20 6.36315e-05
16 *99:21 0.00019031
17 *99:22 4.77236e-05
18 *99:23 0.000294116
19 *99:24 6.74337e-05
20 *99:25 0.00038062
21 *99:26 8.42922e-05
22 *99:29 0.000103806
23 *99:30 6.90303e-05
24 *99:31 0.000236018
25 *99:32 5.17727e-05
26 *99:33 6.90303e-05
27 *99:34 0.000269735
28 *99:35 5.17727e-05
29 *99:37 0.000337169
30 *99:39 0.000303452
31 *99:40 0.00032031
32 *99:41 0.000303452
33 *99:42 0.000604499
34 *99:43 0.00022271
35 *99:44 0.000381789
36 *99:45 0.00021916
37 *99:46 8.42922e-05
38 *99:47 5.05753e-05
39 *99:48 0.000185443
40 *99:49 0.000118009
41 *99:51 0.000101151
42 *99:52 0.00011504
43 *99:53 8.42922e-05
44 *99:54 8.13233e-05

*RES
1 *99:54 *523:Q 1.4
2 *99:53 *524:SI 1.4
3 *99:52 *99:54 0.621429
4 *99:51 *99:53 0.621444
5 *99:49 *99:52 0.248578
6 *99:48 *99:51 0.124289
7 *99:47 *579:B 1.4
8 *99:46 *99:49 0.621444
9 *99:45 *99:48 1.24289
10 *99:45 *99:47 0.372866
11 *99:44 *99:46 1.4
12 *99:43 *99:45 1.4
13 *99:42 *99:44 2.98293
14 *99:42 *99:43 1.74004
15 *99:41 *99:42 1.4
16 *99:40 *99:41 2.2372
17 *99:39 *99:40 0.124289
18 *99:37 *99:39 2.11291
19 *99:35 *851:S0 1.4
20 *99:34 *99:37 0.372866
21 *99:33 *858:S0 1.4
22 *99:32 *99:35 0.37285
23 *99:31 *99:34 1.61575
24 *99:30 *99:33 0.497134
25 *99:29 *99:32 1.4
26 *99:26 *99:31 0.124289
27 *99:25 *99:30 1.4
28 *99:25 *99:29 0.745697
29 *99:24 *835:S0 1.4
30 *99:24 *99:27 0.220714
31 *99:24 *99:26 0.497155
32 *99:23 *99:25 1.98853
33 *99:22 *99:24 1.4
34 *99:21 *99:23 0.124283
35 *99:20 *99:22 0.372866
36 *99:19 *99:21 1.24283
37 *99:18 *99:20 0.124289
38 *99:17 *99:19 0.124283
39 *99:16 *99:18 1.98862
40 *99:15 *99:17 0.86998
41 *99:14 *99:16 0.124289
42 *99:13 *99:15 0.497132
43 *99:12 *99:14 4.34997
44 *99:12 *99:13 2.85851
45 *99:11 *99:12 1.4
46 *99:10 *99:11 3.85279
47 *99:7 *99:10 0.124283
48 *99:6 *870:S0 1.4
49 *99:6 *99:8 0.220714
50 *99:5 *99:7 1.4914
51 *99:4 *99:6 1.4
52 *99:4 *99:5 1.4
53 *99:2 *99:4 7.33289
54 *99:1 *868:S0 1.4
55 *99:1 *99:2 1.4
56 *99:0 *99:1 0.220714
*END

*D_NET *100 0.0135056

*CONN
*I *820:A1 I *C 12.905 30.595 *L 0.00163 *D AOI21XL
*I *822:A I *C 12.905 24.795 *L 0.0017 *D MXI2XL
*I *882:A I *C 17.255 27.115 *L 0.00273 *D CLKINVX1
*I *876:B I *C 11.165 32.625 *L 0.00171 *D NOR2XL
*I *848:A1 I *C 32.045 25.375 *L 0.0028 *D AOI22X1
*I *877:B I *C 28.855 35.235 *L 0.00171 *D NOR2XL
*I *879:A I *C 10.875 40.455 *L 0.00157 *D NAND2XL
*I *818:A1 I *C 30.015 37.265 *L 0.00163 *D AOI21XL
*I *875:B I *C 40.745 37.845 *L 0.00171 *D NOR2XL
*I *817:A1 I *C 42.195 37.265 *L 0.00163 *D AOI21XL
*I *581:B I *C 41.615 50.895 *L 0.00184 *D MX2X1
*I *856:A I *C 42.485 32.625 *L 0.0017 *D MXI2XL
*I *522:Q O *C 36.975 52.925 *L 0 *D SDFFRHQX1
*I *523:SI I *C 17.835 53.505 *L 0.00276 *D SDFFRHQX1

*CAP
1 *100:1 0.000202301
2 *100:2 0.000331874
3 *100:3 6.36315e-05
4 *100:5 0.000159079
5 *100:6 0.000129573
6 *100:7 0.000159079
7 *100:8 0.00076706
8 *100:10 0.000143171
9 *100:11 0.000694486
10 *100:13 4.77236e-05
11 *100:14 0.000552242
12 *100:15 0.000103806
13 *100:17 7.95393e-05
14 *100:18 0.000252876
15 *100:19 0.000552242
16 *100:20 0.000242213
17 *882:A 7.95393e-05
18 *100:22 0.000286593
19 *100:24 0.000121107
20 *100:25 0.000224912
21 *100:26 0.000185443
22 *100:27 0.00019031
23 *100:28 8.18939e-05
24 *100:29 0.000168584
25 *100:30 6.92037e-05
26 *100:31 6.90303e-05
27 *100:32 8.18939e-05
28 *100:33 6.74337e-05
29 *100:34 5.17727e-05
30 *100:35 6.90303e-05
31 *100:37 5.05753e-05
32 *100:38 0.000120803
33 *100:41 6.90303e-05
34 *100:43 0.00038062
35 *100:44 0.000501727
36 *100:45 0.000259514
37 *100:46 0.000155708
38 *100:47 0.000121107
39 *100:48 8.65046e-05
40 *100:49 1.73009e-05
41 *100:50 0.000690303
42 *100:52 0.000673045
43 *100:53 0.000120803
44 *100:56 0.000155318
45 *100:57 0.000103545
46 *100:59 0.000240185
47 *100:60 0.000207091
48 *100:61 0.000119382
49 *100:63 0.000189833
50 *100:64 0.000174247
51 *100:65 5.17727e-05
52 *100:66 0.000209096
53 *100:67 3.45151e-05
54 *100:68 0.000191672
55 *100:70 0.00120328
56 *100:72 0.00104646
57 *100:73 5.22741e-05
58 *522:Q 5.22741e-05

*RES
1 *100:75 *523:SI 1.4
2 *100:75 *100:77 0.220714
3 *100:73 *522:Q 0.372866
4 *100:72 *100:75 1.4
5 *100:71 *100:74 0.220714
6 *100:71 *100:73 1.4
7 *100:70 *100:72 7.83019
8 *100:70 *100:71 1.4
9 *100:68 *100:70 1.1186
10 *100:67 *856:A 1.4
11 *100:66 *100:68 0.248578
12 *100:65 *100:67 0.248567
13 *100:64 *100:66 1.24289
14 *100:63 *100:65 0.124283
15 *100:61 *100:64 1.4
16 *100:60 *100:63 1.24283
17 *100:59 *581:B 1.4
18 *100:59 *100:61 0.869983
19 *100:57 *100:60 0.248567
20 *100:56 *100:59 0.869984
21 *100:53 *817:A1 1.4
22 *100:53 *100:57 0.497134
23 *100:52 *100:56 0.248567
24 *100:51 *875:B 1.4
25 *100:51 *100:54 0.220714
26 *100:50 *100:53 0.37285
27 *100:50 *100:52 4.59849
28 *100:49 *100:51 1.4
29 *100:48 *100:50 1.4
30 *100:47 *100:49 0.124283
31 *100:47 *100:48 0.621415
32 *100:46 *100:47 0.124283
33 *100:45 *100:46 0.994263
34 *100:44 *100:45 0.86998
35 *100:43 *100:44 2.73422
36 *100:41 *100:43 1.4
37 *100:38 *818:A1 1.4
38 *100:38 *100:41 0.497134
39 *100:37 *879:A 1.4
40 *100:35 *877:B 1.4
41 *100:34 *100:38 0.37285
42 *100:33 *100:37 0.372866
43 *100:32 *848:A1 1.4
44 *100:31 *100:35 0.497134
45 *100:30 *100:34 1.4
46 *100:29 *100:33 0.124289
47 *100:28 *100:32 0.621417
48 *100:27 *100:31 1.4
49 *100:27 *100:30 0.497132
50 *100:26 *100:29 1.1186
51 *100:25 *100:28 1.4
52 *100:24 *100:27 0.86998
53 *100:22 *100:26 0.248578
54 *100:20 *100:25 1.61568
55 *100:19 *100:24 1.4
56 *100:18 *876:B 1.4
57 *100:18 *100:22 1.86433
58 *100:17 *882:A 0.621444
59 *100:15 *100:20 0.124283
60 *100:14 *100:19 3.97707
61 *100:13 *100:18 1.4
62 *100:12 *100:17 1.4
63 *100:12 *100:16 0.220714
64 *100:11 *100:15 0.621415
65 *100:11 *100:14 1.4
66 *100:10 *100:13 0.372866
67 *100:8 *100:12 1.4
68 *100:8 *100:11 4.72296
69 *100:7 *100:10 0.745733
70 *100:6 *822:A 1.4
71 *100:5 *100:8 1.24289
72 *100:3 *100:7 0.497155
73 *100:2 *100:6 0.99431
74 *100:2 *100:5 1.4
75 *100:1 *820:A1 1.4
76 *100:1 *100:3 1.4
77 *100:1 *100:2 1.49146
78 *100:0 *100:1 0.220714
*END

*D_NET *101 0.0118142

*CONN
*I *850:A I *C 51.475 30.015 *L 0.0017 *D MXI2XL
*I *852:A I *C 49.155 30.015 *L 0.0017 *D MXI2XL
*I *851:A I *C 49.445 32.625 *L 0.0017 *D MXI2XL
*I *847:A I *C 59.015 30.015 *L 0.0017 *D MXI2XL
*I *849:A I *C 61.335 32.625 *L 0.0017 *D MXI2XL
*I *853:B I *C 61.34 38.185 *L 0.00164 *D MXI2XL
*I *884:A I *C 56.985 37.555 *L 0.00273 *D CLKINVX1
*I *855:A I *C 64.815 37.845 *L 0.0017 *D MXI2XL
*I *854:B I *C 64.24 40.115 *L 0.00164 *D MXI2XL
*I *539:Q O *C 54.085 51.475 *L 0 *D SDFFRHQX1
*I *560:B I *C 53.215 50.895 *L 0.00184 *D MX2X1
*I *540:SI I *C 11.165 45.675 *L 0.00276 *D SDFFRHQX1

*CAP
1 *101:2 0.000189944
2 *101:4 6.8104e-05
3 *101:5 0.000138407
4 *101:6 0.000165678
5 *101:7 0.000155318
6 *101:8 0.000198814
7 *101:9 0.000155318
8 *101:11 0.000115975
9 *101:12 1.73009e-05
10 *101:13 9.94068e-05
11 *851:A 1.73009e-05
12 *101:15 0.000198814
13 *101:16 0.000165678
14 *101:17 6.94766e-05
15 *101:18 0.000225799
16 *101:19 0.00020843
17 *101:21 6.94766e-05
18 *101:22 0.000132542
19 *101:23 0.000191061
20 *849:A 0.000132542
21 *101:25 0.000191061
22 *101:26 6.94766e-05
23 *101:27 5.21074e-05
24 *101:28 0.000248517
25 *101:29 0.000198814
26 *101:30 0.000115975
27 *101:31 9.94068e-05
28 *101:32 5.21074e-05
29 *101:33 1.73691e-05
30 *101:34 0.000165678
31 *101:35 5.21074e-05
32 *101:36 0.000312645
33 *101:37 0.000132542
34 *101:39 0.000312645
35 *101:42 8.68457e-05
36 *101:43 0.000243168
37 *101:44 0.000121584
38 *101:46 0.000225799
39 *101:47 8.68457e-05
40 *101:48 0.000182246
41 *101:49 5.21074e-05
42 *101:50 0.00130204
43 *101:52 0.000243168
44 *101:53 0.0011544
45 *101:54 0.000295275
46 *101:55 0.000242213
47 *101:57 8.68457e-05
48 *101:58 0.000224912
49 *101:59 3.47383e-05
50 *101:60 0.000207611
51 *101:62 0.000207611
52 *101:63 0.000220036
53 *101:64 0.000218643
54 *101:65 0.000318157
55 *101:66 0.000318157
56 *101:67 0.000477236
57 *101:68 0.000461328
58 *101:69 3.37169e-05
59 *101:70 3.37169e-05

*RES
1 *101:70 *540:SI 1.4
2 *101:69 *101:70 0.248578
3 *101:68 *101:69 1.4
4 *101:67 *101:68 3.60437
5 *101:66 *101:67 0.124289
6 *101:65 *101:66 2.36149
7 *101:64 *101:65 0.124289
8 *101:63 *101:64 1.49142
9 *101:62 *101:63 0.124283
10 *101:60 *101:62 1.36711
11 *101:59 *560:B 1.4
12 *101:58 *101:60 0.124283
13 *101:57 *101:59 0.248566
14 *101:55 *101:58 1.49139
15 *101:54 *101:57 0.372849
16 *101:54 *539:Q 1.4
17 *101:53 *101:55 0.248566
18 *101:52 *101:54 1.73996
19 *101:50 *101:53 8.07839
20 *101:50 *101:52 1.4
21 *101:49 *854:B 1.4
22 *101:48 *101:50 1.36711
23 *101:47 *101:49 0.372849
24 *101:46 *101:48 1.4
25 *101:44 *101:47 0.248566
26 *101:43 *101:46 1.61568
27 *101:42 *855:A 1.4
28 *101:42 *101:44 0.621415
29 *101:39 *101:43 0.124283
30 *101:37 *101:42 1.4
31 *101:36 *884:A 1.4
32 *101:36 *101:40 0.212143
33 *101:36 *101:39 2.11281
34 *101:35 *853:B 1.4
35 *101:34 *101:37 0.994264
36 *101:33 *101:36 0.124283
37 *101:32 *101:35 0.372849
38 *101:31 *101:34 0.248566
39 *101:30 *101:33 1.4
40 *101:29 *101:32 1.4
41 *101:29 *101:31 0.497132
42 *101:28 *101:30 0.869981
43 *101:28 *101:29 0.994264
44 *101:27 *101:28 1.4
45 *101:26 *101:27 0.372849
46 *101:25 *101:26 0.124283
47 *101:23 *101:25 1.24283
48 *101:22 *849:A 0.994264
49 *101:21 *101:23 0.124283
50 *101:19 *101:22 1.4
51 *101:19 *101:21 0.372849
52 *101:18 *847:A 1.4
53 *101:18 *101:19 1.11855
54 *101:17 *101:18 0.497132
55 *101:16 *101:17 1.4
56 *101:15 *101:16 1.24283
57 *101:13 *101:15 0.248566
58 *101:12 *851:A 0.124283
59 *101:11 *101:13 0.497132
60 *101:9 *101:12 1.4
61 *101:8 *101:11 0.372849
62 *101:7 *852:A 1.4
63 *101:7 *101:9 1.11855
64 *101:6 *101:8 1.11855
65 *101:5 *101:7 1.4
66 *101:4 *101:6 0.124283
67 *101:2 *101:5 0.994263
68 *101:2 *101:4 0.372849
69 *101:1 *850:A 1.4
70 *101:1 *101:2 1.4
71 *101:0 *101:1 0.220714
*END

*D_NET *102 0.00984295

*CONN
*I *858:A I *C 47.705 35.235 *L 0.0017 *D MXI2XL
*I *840:A1 I *C 52.925 35.525 *L 0.00278 *D AOI21X1
*I *860:A I *C 50.025 35.235 *L 0.0017 *D MXI2XL
*I *859:A I *C 54.375 35.235 *L 0.0017 *D MXI2XL
*I *880:B I *C 56.695 32.625 *L 0.00171 *D NOR2XL
*I *865:A I *C 59.595 35.235 *L 0.0017 *D MXI2XL
*I *885:A I *C 54.085 37.555 *L 0.00273 *D CLKINVX1
*I *857:B I *C 50.32 38.185 *L 0.00164 *D MXI2XL
*I *856:S0 I *C 43.355 32.625 *L 0.00372 *D MXI2XL
*I *862:A I *C 46.835 37.845 *L 0.0017 *D MXI2XL
*I *784:B0 I *C 42.195 35.525 *L 0.0028 *D OAI21X1
*I *863:A I *C 61.915 35.235 *L 0.0017 *D MXI2XL
*I *864:A I *C 64.235 35.235 *L 0.0017 *D MXI2XL
*I *861:B I *C 63.66 38.185 *L 0.00164 *D MXI2XL
*I *538:Q O *C 46.545 47.705 *L 0 *D SDFFRHQX1
*I *539:SI I *C 62.495 50.895 *L 0.00276 *D SDFFRHQX1
*I *658:A I *C 50.315 53.505 *L 0.00157 *D NAND2XL

*CAP
1 *102:2 0.000173009
2 *102:4 0.000309584
3 *102:5 0.000173009
4 *102:6 0.000271316
5 *102:7 6.90303e-05
6 *102:8 0.000173009
7 *102:9 0.000215381
8 *102:10 0.000121584
9 *102:11 8.62879e-05
10 *102:13 1.73009e-05
11 *102:14 5.19028e-05
12 *102:15 0.000182246
13 *102:17 0.000121584
14 *102:20 0.000120803
15 *860:A 1.73009e-05
16 *102:22 0.000224348
17 *102:23 6.62712e-05
18 *102:24 0.000156322
19 *102:27 1.65678e-05
20 *102:28 0.000120803
21 *102:29 0.000155318
22 *102:30 0.000138061
23 *102:31 0.000215381
24 *102:32 0.000156322
25 *102:33 0.000165678
26 *102:34 8.2839e-05
27 *102:35 1.72576e-05
28 *102:36 0.000138407
29 *102:37 0.000103806
30 *102:38 6.90303e-05
31 *102:39 0.000215381
32 *865:A 0.000165678
33 *885:A 6.62712e-05
34 *102:44 0.000173009
35 *102:45 0.000103806
36 *102:47 6.62712e-05
37 *102:48 5.17727e-05
38 *862:A 3.46019e-05
39 *102:50 6.90303e-05
40 *102:51 0.000182246
41 *102:52 6.90303e-05
42 *102:53 6.90303e-05
43 *102:54 0.000132542
44 *102:55 0.00020843
45 *102:56 0.000224348
46 *102:59 0.000243168
47 *102:62 0.000224348
48 *102:65 0.000295275
49 *102:66 0.000138061
50 *102:67 0.000243168
51 *102:68 6.94766e-05
52 *102:69 0.000138061
53 *102:70 0.000156322
54 *102:71 6.94766e-05
55 *102:72 0.000224348
56 *102:73 0.000156322
57 *102:74 3.47383e-05
58 *102:75 0.000276121
59 *102:76 0.000382121
60 *102:79 6.90303e-05
61 *102:80 0.000364752
62 *102:81 0.000224912
63 *102:83 0.000224912
64 *102:84 0.000273564
65 *102:85 0.000273564

*RES
1 *102:85 *658:A 1.4
2 *102:84 *102:85 1.98853
3 *102:83 *102:84 1.4
4 *102:81 *102:83 1.61568
5 *102:80 *539:SI 1.4
6 *102:79 *102:81 1.4
7 *102:76 *102:80 2.60994
8 *102:75 *102:79 0.497134
9 *102:75 *538:Q 1.4
10 *102:74 *861:B 1.4
11 *102:73 *102:76 0.124283
12 *102:72 *102:75 1.4914
13 *102:71 *102:74 0.248566
14 *102:70 *102:73 0.994263
15 *102:69 *102:72 0.124283
16 *102:68 *102:71 0.248566
17 *102:67 *102:70 0.124283
18 *102:66 *102:69 0.869984
19 *102:65 *102:68 0.248566
20 *102:65 *102:67 1.61568
21 *102:62 *102:66 0.124283
22 *102:59 *102:65 0.248566
23 *102:58 *864:A 1.4
24 *102:58 *102:63 0.03
25 *102:56 *102:62 1.4914
26 *102:55 *863:A 1.4
27 *102:55 *102:60 0.220714
28 *102:55 *102:59 1.49139
29 *102:54 *102:58 1.4
30 *102:53 *784:B0 1.4
31 *102:52 *102:56 0.124283
32 *102:51 *102:55 1.4
33 *102:51 *102:54 0.994264
34 *102:50 *102:53 0.497134
35 *102:48 *102:52 0.37285
36 *102:47 *102:51 0.372849
37 *102:45 *102:50 1.4
38 *102:44 *862:A 0.248566
39 *102:44 *102:48 1.4
40 *102:39 *102:47 0.124283
41 *102:38 *856:S0 1.4
42 *102:37 *102:45 0.745697
43 *102:36 *102:44 0.994263
44 *102:35 *857:B 1.4
45 *102:34 *885:A 0.497132
46 *102:33 *865:A 1.24283
47 *102:32 *880:B 1.4
48 *102:31 *102:39 1.4914
49 *102:30 *102:38 0.497134
50 *102:30 *102:37 1.4
51 *102:29 *102:36 1.4
52 *102:28 *102:35 0.124283
53 *102:27 *102:34 0.124283
54 *102:24 *102:33 1.4
55 *102:24 *102:32 1.11855
56 *102:23 *102:31 0.124283
57 *102:22 *102:30 0.497134
58 *102:22 *102:29 1.11855
59 *102:20 *102:28 0.7457
60 *102:17 *102:27 1.4
61 *102:16 *859:A 1.4
62 *102:16 *102:25 0.220714
63 *102:15 *102:24 1.4
64 *102:15 *102:23 0.372849
65 *102:14 *102:22 1.4
66 *102:13 *860:A 0.124283
67 *102:11 *102:20 0.124283
68 *102:10 *840:A1 1.4
69 *102:10 *102:18 0.220714
70 *102:10 *102:17 0.86998
71 *102:9 *102:16 1.4
72 *102:9 *102:15 0.994264
73 *102:8 *102:14 0.372849
74 *102:7 *102:13 1.4
75 *102:7 *102:12 0.220714
76 *102:7 *102:11 0.497134
77 *102:6 *102:10 1.4
78 *102:6 *102:9 0.621415
79 *102:5 *102:8 0.86998
80 *102:4 *102:7 1.4
81 *102:4 *102:6 1.36711
82 *102:2 *102:5 0.372849
83 *102:2 *102:4 0.86998
84 *102:1 *858:A 1.4
85 *102:1 *102:2 1.4
86 *102:0 *102:1 0.220714
*END

*D_NET *103 0.00489537

*CONN
*I *875:A I *C 40.455 37.555 *L 0.00162 *D NOR2XL
*I *817:A0 I *C 41.615 37.555 *L 0.00158 *D AOI21XL
*I *841:S0 I *C 45.385 34.945 *L 0.00371 *D MX2X1
*I *537:Q O *C 42.485 46.255 *L 0 *D SDFFRHQX1
*I *657:A I *C 43.645 48.285 *L 0.00157 *D NAND2XL
*I *857:S0 I *C 50.025 37.845 *L 0.00372 *D MXI2XL
*I *538:SI I *C 54.955 48.285 *L 0.00276 *D SDFFRHQX1

*CAP
1 *103:2 6.92037e-05
2 *103:4 0.000294116
3 *103:5 0.000155318
4 *103:6 0.00036332
5 *103:7 0.000172576
6 *103:10 0.000259514
7 *103:11 0.000155318
8 *103:12 0.000310636
9 *103:13 0.000173009
10 *103:14 0.000155318
11 *103:15 0.000483212
12 *103:16 5.19028e-05
13 *103:18 3.46019e-05
14 *103:19 0.000189833
15 *103:20 3.45151e-05
16 *537:Q 3.46019e-05
17 *103:22 0.000103806
18 *103:23 0.000396924
19 *657:A 0.000103806
20 *103:25 0.000362409
21 *103:27 0.000252549
22 *103:28 0.000252549
23 *103:29 0.000243168
24 *103:30 0.000243168

*RES
1 *103:30 *538:SI 1.4
2 *103:29 *103:30 1.73996
3 *103:28 *103:29 1.4
4 *103:27 *103:28 1.86424
5 *103:25 *103:27 1.4
6 *103:23 *857:S0 1.4
7 *103:23 *103:25 2.60995
8 *103:22 *657:A 0.745697
9 *103:20 *103:23 0.248567
10 *103:19 *103:22 1.4
11 *103:18 *537:Q 0.248566
12 *103:16 *103:20 1.4
13 *103:15 *103:19 1.36712
14 *103:15 *103:18 1.4
15 *103:14 *841:S0 1.4
16 *103:13 *103:16 0.372849
17 *103:12 *103:15 2.11282
18 *103:11 *103:14 1.11855
19 *103:10 *103:13 0.86998
20 *103:7 *103:12 0.124283
21 *103:6 *103:11 1.4
22 *103:6 *103:10 0.994263
23 *103:5 *817:A0 1.4
24 *103:5 *103:8 0.220714
25 *103:5 *103:7 1.11855
26 *103:4 *103:6 1.61568
27 *103:4 *103:5 1.4
28 *103:2 *103:4 0.497132
29 *103:1 *875:A 1.4
30 *103:1 *103:2 1.4
31 *103:0 *103:1 0.220714
*END

*D_NET *104 0.0150718

*CONN
*I *536:Q O *C 29.435 41.035 *L 0 *D SDFFRHQX1
*I *817:B0 I *C 42.775 37.555 *L 0.00166 *D AOI21XL
*I *653:A I *C 40.165 45.675 *L 0.00157 *D NAND2XL
*I *883:A I *C 40.745 30.305 *L 0.00273 *D CLKINVX1
*I *841:B I *C 46.835 35.235 *L 0.00184 *D MX2X1
*I *838:A I *C 41.615 22.185 *L 0.0017 *D MXI2XL
*I *819:B I *C 34.37 29.675 *L 0.00164 *D MXI2XL
*I *825:A I *C 48.865 19.575 *L 0.0017 *D MXI2XL
*I *537:SI I *C 50.895 45.675 *L 0.00276 *D SDFFRHQX1
*I *848:B1 I *C 32.625 25.085 *L 0.00283 *D AOI22X1
*I *837:A I *C 34.075 22.185 *L 0.0017 *D MXI2XL
*I *870:A I *C 31.755 22.185 *L 0.0017 *D MXI2XL
*I *783:B0 I *C 30.595 30.305 *L 0.0028 *D OAI21X1
*I *834:A I *C 55.245 22.185 *L 0.0017 *D MXI2XL
*I *823:A I *C 52.925 19.575 *L 0.0017 *D MXI2XL
*I *827:A I *C 56.695 24.795 *L 0.0017 *D MXI2XL
*I *830:B I *C 60.18 24.455 *L 0.00164 *D MXI2XL

*CAP
1 *104:3 0.000519028
2 *104:4 0.000536329
3 *104:5 0.000155708
4 *104:6 0.000276815
5 *104:7 0.000138407
6 *104:8 0.000293379
7 *104:9 0.000103545
8 *104:10 0.000258864
9 *104:11 8.62879e-05
10 *104:12 0.000172576
11 *104:13 0.000138061
12 *104:14 0.000534985
13 *104:15 6.90303e-05
14 *104:17 0.000120803
15 *104:18 0.00050047
16 *104:19 0.000242213
17 *104:21 5.19028e-05
18 *104:22 0.000242213
19 *883:A 5.19028e-05
20 *104:24 0.000379667
21 *104:25 0.000138061
22 *104:26 0.000310636
23 *104:27 8.62879e-05
24 *104:28 0.000459485
25 *104:29 0.000155318
26 *104:31 0.000414424
27 *104:32 0.00038062
28 *104:33 0.000155318
29 *104:34 9.29999e-05
30 *104:35 5.19722e-05
31 *104:36 0.00038062
32 *104:37 6.90303e-05
33 *104:38 0.000259861
34 *838:A 5.19722e-05
35 *104:40 0.00022347
36 *104:41 5.17727e-05
37 *104:42 0.000311833
38 *104:43 0.000103545
39 *104:44 0.000119924
40 *104:45 0.000242213
41 *104:46 0.000242537
42 *104:48 3.46481e-05
43 *104:49 0.000242213
44 *104:50 0.000225213
45 *104:51 0.000103944
46 *104:52 5.17727e-05
47 *825:A 3.46481e-05
48 *104:54 0.0001395
49 *104:55 0.000207889
50 *104:56 0.000124
51 *104:57 5.17727e-05
52 *104:58 0.0001395
53 *104:59 0.000138592
54 *104:60 4.64999e-05
55 *104:61 0.0001395
56 *104:63 5.19722e-05
57 *104:64 0.000355939
58 *104:65 4.64999e-05
59 *104:66 9.29999e-05
60 *104:67 6.92962e-05
61 *104:68 0.000171697
62 *104:69 0.0002015
63 *104:71 7.74999e-05
64 *104:72 0.000190565
65 *104:73 0.000103545
66 *104:74 8.66203e-05
67 *104:76 0.000190565
68 *104:77 8.62879e-05
69 *870:A 8.66203e-05
70 *104:79 6.61026e-05
71 *104:81 0.000177151
72 *834:A 0.000128373
73 *104:83 0.000195942
74 *104:84 0.000146956
75 *104:85 0.000146956
76 *104:86 9.79709e-05
77 *104:87 4.81398e-05
78 *104:89 0.000208606
79 *104:90 6.41864e-05
80 *827:A 0.000208606
81 *104:92 0.000256745
82 *104:93 0.000256745
83 *104:94 0.000128373
84 *104:95 0.000112326
85 *104:96 8.16424e-05
86 *104:97 8.16424e-05

*RES
1 *104:97 *830:B 1.4
2 *104:96 *104:97 0.621444
3 *104:95 *104:96 1.4
4 *104:94 *104:95 0.869981
5 *104:93 *104:94 0.124283
6 *104:92 *104:93 1.86425
7 *104:90 *104:92 0.124283
8 *104:89 *827:A 1.61568
9 *104:87 *104:90 0.372849
10 *104:86 *104:89 1.4
11 *104:85 *823:A 1.4
12 *104:84 *104:87 1.4
13 *104:84 *104:86 0.745732
14 *104:83 *104:85 1.1186
15 *104:83 *104:84 0.372866
16 *104:81 *104:83 1.4
17 *104:81 *834:A 0.994264
18 *104:79 *104:81 0.372849
19 *104:77 *783:B0 1.4
20 *104:76 *104:79 0.124283
21 *104:74 *870:A 0.621415
22 *104:73 *104:77 0.621417
23 *104:72 *104:76 1.24283
24 *104:71 *837:A 1.4
25 *104:69 *104:74 1.4
26 *104:68 *104:73 0.124283
27 *104:67 *104:72 0.124283
28 *104:66 *104:71 0.621417
29 *104:65 *848:B1 1.4
30 *104:64 *104:69 1.61568
31 *104:64 *104:68 1.11855
32 *104:63 *104:67 0.372849
33 *104:61 *104:66 0.124283
34 *104:60 *104:65 0.37285
35 *104:59 *104:64 1.4
36 *104:58 *104:63 1.4
37 *104:57 *537:SI 1.4
38 *104:56 *104:61 0.994267
39 *104:55 *104:60 1.4
40 *104:55 *104:59 0.994263
41 *104:54 *104:58 1.11855
42 *104:52 *104:57 0.37285
43 *104:51 *104:56 1.4
44 *104:51 *104:55 0.497132
45 *104:50 *104:54 1.4
46 *104:50 *825:A 0.248566
47 *104:49 *104:52 1.4
48 *104:48 *104:51 0.248566
49 *104:46 *104:50 1.36711
50 *104:45 *104:49 1.73996
51 *104:44 *104:48 1.4
52 *104:43 *819:B 1.4
53 *104:42 *104:46 0.372849
54 *104:41 *104:45 1.4
55 *104:40 *104:44 0.869984
56 *104:40 *104:43 0.7457
57 *104:38 *104:42 1.86424
58 *104:37 *104:41 0.37285
59 *104:36 *104:40 1.4
60 *104:35 *838:A 0.372849
61 *104:34 *104:38 1.4
62 *104:33 *104:37 0.124283
63 *104:32 *104:36 2.73422
64 *104:31 *104:35 1.4
65 *104:31 *104:34 0.7457
66 *104:29 *104:33 0.994267
67 *104:28 *104:32 1.4
68 *104:28 *104:31 2.48567
69 *104:27 *841:B 1.4
70 *104:26 *104:29 0.124283
71 *104:25 *104:28 0.994267
72 *104:24 *104:27 0.621417
73 *104:24 *104:26 2.11282
74 *883:A *104:25 1.4
75 *104:22 *104:24 1.4
76 *104:21 *883:A 0.372849
77 *104:19 *104:22 1.73996
78 *104:18 *104:21 1.4
79 *104:17 *653:A 1.4
80 *104:15 *104:19 1.4
81 *104:14 *104:18 3.60422
82 *104:13 *104:17 0.869984
83 *104:12 *817:B0 1.4
84 *104:12 *104:15 0.497134
85 *104:11 *104:14 0.248567
86 *104:10 *104:13 0.124283
87 *104:9 *104:12 0.7457
88 *104:8 *104:11 0.37285
89 *104:8 *104:10 1.73997
90 *104:7 *104:9 1.4
91 *104:6 *104:8 1.4
92 *104:6 *104:7 0.994263
93 *104:5 *104:6 0.994263
94 *104:4 *104:5 0.124283
95 *104:3 *104:4 3.72849
96 *104:1 *104:3 1.4
97 *104:1 *536:Q 1.4
98 *104:0 *104:1 0.220714
*END

*D_NET *105 0.00507884

*CONN
*I *535:Q O *C 27.695 46.255 *L 0 *D SDFFRHQX1
*I *661:A I *C 26.535 45.675 *L 0.00157 *D NAND2XL
*I *818:A0 I *C 29.435 37.555 *L 0.00158 *D AOI21XL
*I *536:SI I *C 37.845 40.455 *L 0.00276 *D SDFFRHQX1
*I *877:A I *C 28.565 35.525 *L 0.00162 *D NOR2XL
*I *842:S0 I *C 30.595 27.695 *L 0.00371 *D MX2X1
*I *819:S0 I *C 34.075 30.015 *L 0.00372 *D MXI2XL

*CAP
1 *105:1 6.90303e-05
2 *105:3 6.92037e-05
3 *105:4 8.62879e-05
4 *105:5 6.92037e-05
5 *105:6 0.000258864
6 *105:7 3.45151e-05
7 *105:8 0.000258864
8 *105:9 3.45151e-05
9 *105:10 6.90303e-05
10 *105:12 0.000138061
11 *105:13 0.000173009
12 *105:14 8.62879e-05
13 *105:15 0.000605533
14 *105:16 5.19028e-05
15 *105:17 0.000432523
16 *105:18 5.17727e-05
17 *105:19 0.000103806
18 *105:20 8.62879e-05
19 *105:21 8.62879e-05
20 *818:A0 5.19028e-05
21 *105:23 0.000120803
22 *105:24 8.62879e-05
23 *105:25 0.000310636
24 *105:26 0.000120803
25 *105:28 0.000293379
26 *105:30 0.000189833
27 *105:31 0.000189833
28 *105:32 0.000120803
29 *105:33 0.000103545
30 *105:34 3.46019e-05
31 *105:35 0.000242213
32 *105:36 0.000207611
33 *105:37 6.90303e-05
34 *105:38 5.17727e-05
35 *105:39 6.90303e-05
36 *105:40 5.17727e-05

*RES
1 *105:40 *819:S0 1.4
2 *105:39 *842:S0 1.4
3 *105:38 *105:40 0.37285
4 *105:37 *105:39 0.497134
5 *105:36 *105:38 1.4
6 *105:35 *105:37 1.4
7 *105:35 *105:36 1.49139
8 *105:34 *105:35 0.248566
9 *105:33 *105:34 1.4
10 *105:32 *105:33 0.7457
11 *105:31 *105:32 0.124283
12 *105:30 *105:31 1.24283
13 *105:28 *105:30 0.124283
14 *105:26 *877:A 1.4
15 *105:25 *105:28 1.98853
16 *105:24 *536:SI 1.4
17 *105:23 *105:26 0.869984
18 *105:21 *105:25 0.248567
19 *105:20 *105:24 0.621417
20 *105:19 *105:23 1.4
21 *105:19 *818:A0 0.372849
22 *105:18 *105:21 0.37285
23 *105:17 *105:20 1.4
24 *105:16 *105:19 0.372849
25 *105:15 *105:18 1.4
26 *105:15 *105:17 3.10707
27 *105:14 *105:16 1.4
28 *105:13 *105:15 1.24283
29 *105:12 *105:14 0.621417
30 *105:12 *105:13 1.4
31 *105:10 *105:12 0.37285
32 *105:9 *661:A 1.4
33 *105:8 *105:10 0.124283
34 *105:7 *105:9 0.248567
35 *105:6 *105:8 1.73997
36 *105:5 *105:7 1.4
37 *105:4 *105:6 0.124283
38 *105:3 *105:5 0.497132
39 *105:1 *105:4 0.497134
40 *105:1 *105:3 1.4
41 *105:1 *535:Q 1.4
42 *105:0 *105:1 0.220714
*END

*D_NET *106 0.0127593

*CONN
*I *821:B I *C 16.39 24.455 *L 0.00164 *D MXI2XL
*I *831:A I *C 16.965 19.575 *L 0.0017 *D MXI2XL
*I *822:S0 I *C 13.775 24.795 *L 0.00372 *D MXI2XL
*I *871:A I *C 21.315 19.575 *L 0.0017 *D MXI2XL
*I *886:A I *C 17.545 25.085 *L 0.00273 *D CLKINVX1
*I *782:B0 I *C 14.065 27.115 *L 0.0028 *D OAI21X1
*I *868:A I *C 14.645 22.185 *L 0.0017 *D MXI2XL
*I *654:A I *C 14.645 40.455 *L 0.00157 *D NAND2XL
*I *534:Q O *C 7.395 42.485 *L 0 *D SDFFRHQX1
*I *842:B I *C 32.045 27.405 *L 0.00184 *D MX2X1
*I *535:SI I *C 36.105 45.675 *L 0.00276 *D SDFFRHQX1
*I *818:B0 I *C 30.595 37.555 *L 0.00166 *D AOI21XL
*I *866:A I *C 28.565 19.575 *L 0.0017 *D MXI2XL
*I *872:A I *C 33.205 19.575 *L 0.0017 *D MXI2XL
*I *867:B I *C 37.56 22.525 *L 0.00164 *D MXI2XL
*I *836:B I *C 38.43 24.455 *L 0.00164 *D MXI2XL
*I *824:B I *C 39.88 22.525 *L 0.00164 *D MXI2XL

*CAP
1 *106:1 0.000266591
2 *106:2 0.000152009
3 *106:3 0.000266591
4 *106:5 4.56028e-05
5 *106:6 0.000106407
6 *106:7 0.000258416
7 *106:8 3.04019e-05
8 *106:9 3.13637e-05
9 *106:10 0.000125455
10 *106:11 0.000258416
11 *831:A 3.04019e-05
12 *106:13 3.13637e-05
13 *106:14 4.70455e-05
14 *106:15 0.000109773
15 *106:18 1.52009e-05
16 *106:19 0.000146431
17 *106:20 4.70455e-05
18 *886:A 1.52009e-05
19 *106:24 0.000653361
20 *106:25 3.13637e-05
21 *106:26 0.000556328
22 *106:29 0.000269735
23 *106:30 0.00032031
24 *106:31 8.42922e-05
25 *106:33 0.000254526
26 *106:34 0.00022271
27 *106:35 0.000159079
28 *106:36 0.000206802
29 *106:37 0.000349973
30 *106:38 0.000206802
31 *106:39 0.000238618
32 *106:40 0.000514736
33 *106:41 3.37169e-05
34 *106:42 0.000585333
35 *106:43 3.37169e-05
36 *106:44 0.000311417
37 *106:45 5.17727e-05
38 *106:47 0.000224912
39 *106:48 0.000862879
40 *106:49 6.90303e-05
41 *106:50 3.45151e-05
42 *106:51 0.00105679
43 *106:52 0.000155318
44 *106:53 5.17727e-05
45 *106:54 0.000410909
46 *106:56 0.000155318
47 *106:57 0.000207091
48 *106:58 0.000217
49 *106:59 0.000225213
50 *106:62 6.90303e-05
51 *106:63 0.000189833
52 *106:64 0.000225213
53 *106:65 0.000259861
54 *106:68 5.17727e-05
55 *106:70 0.000207889
56 *106:71 8.66203e-05
57 *106:72 0.000138592
58 *106:74 1.55e-05
59 *106:75 6.92962e-05
60 *106:76 0.000155917
61 *106:77 1.55e-05
62 *106:79 0.000138592
63 *106:80 4.64999e-05
64 *106:85 8.66203e-05
65 *106:86 6.19999e-05
66 *106:87 4.64999e-05
67 *106:88 4.64999e-05
68 *106:89 6.19999e-05
69 *106:91 4.64999e-05

*RES
1 *106:91 *824:B 1.4
2 *106:89 *836:B 1.4
3 *106:88 *106:91 0.37285
4 *106:87 *867:B 1.4
5 *106:86 *106:89 0.497134
6 *106:85 *106:88 1.4
7 *106:80 *106:87 0.37285
8 *106:79 *106:86 1.4
9 *106:79 *106:85 0.621415
10 *106:78 *872:A 1.4
11 *106:78 *106:83 0.03
12 *106:77 *866:A 1.4
13 *106:77 *106:81 0.0878571
14 *106:76 *106:80 1.4
15 *106:76 *106:79 0.372849
16 *106:75 *106:78 1.4
17 *106:74 *106:77 0.124283
18 *106:72 *106:76 0.745697
19 *106:71 *106:75 0.497132
20 *106:70 *106:74 1.4
21 *106:68 *818:B0 1.4
22 *106:65 *106:72 0.248566
23 *106:64 *106:71 0.124283
24 *106:64 *106:70 1.49139
25 *106:63 *535:SI 1.4
26 *106:62 *106:68 0.37285
27 *106:61 *842:B 1.4
28 *106:61 *106:66 0.03
29 *106:59 *106:65 1.61568
30 *106:58 *106:64 1.4
31 *106:57 *106:63 1.36712
32 *106:56 *106:62 0.124283
33 *106:55 *106:61 1.4
34 *106:55 *106:60 0.220714
35 *106:54 *106:59 1.4
36 *106:54 *106:58 1.73997
37 *106:53 *106:57 0.124283
38 *106:52 *106:56 0.994267
39 *106:51 *106:55 1.4
40 *106:51 *106:54 1.4914
41 *106:50 *106:53 0.248567
42 *106:49 *106:52 0.124283
43 *106:48 *106:51 6.21417
44 *106:47 *106:50 1.4
45 *106:45 *106:49 0.37285
46 *106:44 *106:48 1.4
47 *106:44 *106:47 1.61568
48 *106:43 *534:Q 1.4
49 *106:42 *106:45 1.4
50 *106:42 *106:44 0.621415
51 *106:41 *106:43 0.248578
52 *106:40 *106:42 3.72857
53 *106:39 *106:41 1.4
54 *106:38 *106:40 0.124289
55 *106:37 *106:39 1.86433
56 *106:36 *106:38 1.49147
57 *106:35 *106:37 0.870021
58 *106:34 *106:36 0.124289
59 *106:33 *106:35 0.372866
60 *106:33 *106:34 1.61575
61 *106:31 *106:33 1.4
62 *106:30 *654:A 1.4
63 *106:30 *106:31 0.621444
64 *106:29 *106:30 1.74004
65 *106:26 *106:29 0.248578
66 *106:25 *868:A 1.4
67 *106:24 *782:B0 1.4
68 *106:24 *106:26 3.85295
69 *106:20 *106:25 0.248578
70 *106:19 *106:24 0.99431
71 *106:18 *886:A 0.124289
72 *106:17 *871:A 1.4
73 *106:17 *106:21 0.220714
74 *106:15 *106:20 0.124289
75 *106:14 *106:19 0.124289
76 *106:13 *106:18 1.4
77 *106:11 *106:17 1.4
78 *106:10 *822:S0 1.4
79 *106:10 *106:15 0.745733
80 *106:10 *106:14 0.248578
81 *106:9 *106:13 0.248578
82 *106:8 *831:A 0.248578
83 *106:7 *106:11 2.11291
84 *106:6 *106:10 1.4
85 *106:5 *106:9 1.4
86 *106:3 *106:8 1.4
87 *106:3 *106:7 1.4
88 *106:2 *106:6 0.870021
89 *106:2 *106:5 0.372866
90 *106:1 *821:B 1.4
91 *106:1 *106:3 2.11291
92 *106:1 *106:2 1.4
93 *106:0 *106:1 0.220714
*END

*D_NET *107 0.00482176

*CONN
*I *820:A0 I *C 12.325 30.305 *L 0.00158 *D AOI21XL
*I *876:A I *C 10.875 32.335 *L 0.00162 *D NOR2XL
*I *874:S0 I *C 14.645 29.725 *L 0.00371 *D MX2X1
*I *651:A I *C 12.905 40.455 *L 0.00157 *D NAND2XL
*I *821:S0 I *C 16.095 24.795 *L 0.00372 *D MXI2XL
*I *534:SI I *C 15.805 43.065 *L 0.00276 *D SDFFRHQX1
*I *533:Q O *C 5.945 47.705 *L 0 *D SDFFRHQX1

*CAP
1 *107:1 1.68584e-05
2 *107:2 9.54472e-05
3 *107:3 1.68584e-05
4 *107:4 7.95393e-05
5 *107:5 0.000143171
6 *107:7 0.000101151
7 *107:8 0.000127263
8 *107:9 0.000202301
9 *107:10 3.37169e-05
10 *107:11 0.000101151
11 *107:13 0.000101151
12 *107:14 7.95393e-05
13 *107:15 6.74337e-05
14 *107:17 7.95393e-05
15 *107:18 0.000111355
16 *107:19 0.000370885
17 *107:20 0.000111355
18 *107:21 0.000573187
19 *107:22 0.000229547
20 *107:23 0.000202301
21 *107:24 3.18157e-05
22 *107:25 0.000229547
23 *107:26 0.000238618
24 *651:A 3.18157e-05
25 *107:29 0.000190894
26 *107:30 6.36315e-05
27 *107:31 5.05753e-05
28 *107:32 0.000238618
29 *107:33 5.05753e-05
30 *107:34 0.000238618
31 *107:36 9.54472e-05
32 *107:37 7.95393e-05
33 *107:38 0.00021916
34 *107:39 0.00021916

*RES
1 *107:39 *533:Q 1.4
2 *107:38 *107:39 1.61575
3 *107:37 *107:38 1.4
4 *107:36 *107:37 0.621444
5 *107:34 *107:36 0.124289
6 *107:33 *534:SI 1.4
7 *107:32 *107:34 1.74004
8 *107:31 *107:33 0.372866
9 *107:30 *107:32 0.124289
10 *107:29 *107:31 1.4
11 *107:26 *107:30 0.372866
12 *107:26 *107:29 1.49147
13 *107:25 *821:S0 1.4
14 *107:24 *651:A 0.248578
15 *107:23 *107:26 1.4
16 *107:22 *107:25 1.74004
17 *107:21 *107:24 1.4
18 *107:21 *107:23 1.49146
19 *107:20 *107:22 1.4
20 *107:19 *107:21 2.73435
21 *107:18 *107:20 0.870021
22 *107:17 *107:19 1.4
23 *107:15 *107:18 1.4
24 *107:14 *107:17 0.621444
25 *107:13 *874:S0 1.4
26 *107:13 *107:15 0.497155
27 *107:11 *107:14 1.4
28 *107:10 *107:13 0.248578
29 *107:9 *876:A 1.4
30 *107:9 *107:11 0.745732
31 *107:8 *107:10 1.4
32 *107:7 *107:9 0.745732
33 *107:5 *107:8 0.99431
34 *107:4 *107:7 1.4
35 *107:3 *820:A0 1.4
36 *107:2 *107:5 0.124289
37 *107:2 *107:4 0.621444
38 *107:1 *107:3 0.124289
39 *107:1 *107:2 1.4
40 *107:0 *107:1 0.212143
*END

*D_NET *108 0.00987193

*CONN
*I *820:B0 I *C 13.485 30.305 *L 0.00166 *D AOI21XL
*I *874:B I *C 16.095 30.015 *L 0.00184 *D MX2X1
*I *869:A I *C 16.965 30.015 *L 0.0017 *D MXI2XL
*I *835:B I *C 16.97 34.895 *L 0.00164 *D MXI2XL
*I *887:A I *C 20.735 35.525 *L 0.00273 *D CLKINVX1
*I *839:B I *C 22.19 32.965 *L 0.00164 *D MXI2XL
*I *833:A I *C 26.245 35.235 *L 0.0017 *D MXI2XL
*I *829:A I *C 31.175 37.845 *L 0.0017 *D MXI2XL
*I *828:A I *C 8.845 40.455 *L 0.00157 *D NAND2XL
*I *832:A I *C 32.045 35.235 *L 0.0017 *D MXI2XL
*I *873:A I *C 29.725 35.235 *L 0.0017 *D MXI2XL
*I *826:B I *C 35.53 34.895 *L 0.00164 *D MXI2XL
*I *533:SI I *C 14.355 48.285 *L 0.00276 *D SDFFRHQX1
*I *532:Q O *C 7.105 51.475 *L 0 *D SDFFRHQX1
*I *578:B I *C 18.415 50.895 *L 0.00184 *D MX2X1

*CAP
1 *108:2 0.000143171
2 *108:4 0.000143171
3 *108:5 0.000118009
4 *108:6 0.000118009
5 *108:8 8.42922e-05
6 *108:10 0.000236018
7 *108:11 8.42922e-05
8 *108:12 0.000252876
9 *108:13 3.37169e-05
10 *108:14 0.000168584
11 *108:15 1.68584e-05
12 *108:17 0.000134867
13 *108:18 0.000159079
14 *108:20 0.000572683
15 *108:21 0.000159079
16 *108:22 0.000525656
17 *108:23 0.000381789
18 *108:25 0.000413717
19 *108:26 0.000286593
20 *108:27 0.000159079
21 *108:29 6.36315e-05
22 *108:30 0.000294116
23 *108:31 0.000155318
24 *108:32 0.000286593
25 *108:33 4.77236e-05
26 *887:A 6.36315e-05
27 *108:35 0.000155708
28 *108:36 0.000120803
29 *108:37 0.000155318
30 *108:39 0.000151726
31 *108:40 0.000259514
32 *108:42 0.000138061
33 *108:44 0.000657479
34 *108:45 0.000207611
35 *108:46 0.000155318
36 *108:49 5.17727e-05
37 *108:50 0.000505753
38 *108:52 0.000172576
39 *108:53 0.000155318
40 *108:54 3.45151e-05
41 *108:55 0.000397697
42 *108:56 0.000172576
43 *108:59 0.000477236
44 *108:60 9.54472e-05
45 *108:62 0.000206802
46 *108:63 5.05753e-05
47 *108:64 6.74337e-05
48 *108:65 7.95393e-05
49 *108:66 5.05753e-05
50 *108:67 6.74337e-05
51 *108:68 4.77236e-05
52 *108:71 6.74337e-05
53 *108:72 6.74337e-05

*RES
1 *108:72 *578:B 1.4
2 *108:71 *108:72 0.497155
3 *108:68 *108:71 1.4
4 *108:67 *532:Q 1.4
5 *108:66 *533:SI 1.4
6 *108:65 *108:68 0.372866
7 *108:64 *108:67 0.497155
8 *108:63 *108:66 0.372866
9 *108:62 *108:65 0.248578
10 *108:60 *108:64 1.4
11 *108:59 *108:63 1.4
12 *108:59 *108:62 1.36718
13 *108:56 *826:B 1.4
14 *108:55 *108:60 0.745733
15 *108:55 *108:59 2.36149
16 *108:54 *873:A 1.4
17 *108:53 *832:A 1.4
18 *108:52 *108:56 1.24283
19 *108:50 *108:55 1.4
20 *108:49 *108:54 0.248567
21 *108:46 *108:53 1.11855
22 *108:45 *108:52 1.4
23 *108:44 *828:A 1.4
24 *108:44 *108:50 3.72866
25 *108:42 *108:49 0.124283
26 *108:41 *829:A 1.4
27 *108:41 *108:47 0.220714
28 *108:40 *108:46 1.4
29 *108:40 *108:45 1.49139
30 *108:39 *108:44 1.1186
31 *108:37 *833:A 1.4
32 *108:36 *108:42 0.869984
33 *108:35 *108:41 1.4
34 *108:35 *108:40 0.372849
35 *108:33 *108:39 1.4
36 *108:32 *839:B 1.4
37 *108:31 *108:37 1.11855
38 *108:30 *108:36 1.4
39 *108:30 *108:35 0.745697
40 *108:29 *887:A 0.497155
41 *108:27 *108:33 0.372866
42 *108:26 *108:32 2.11291
43 *108:25 *108:31 1.4
44 *108:25 *108:30 1.36711
45 *108:24 *108:29 1.4
46 *108:24 *108:28 0.220714
47 *108:23 *108:27 0.870021
48 *108:22 *108:26 1.4
49 *108:22 *108:25 1.74004
50 *108:21 *108:24 1.4
51 *108:20 *108:23 2.11291
52 *108:20 *108:22 2.36149
53 *108:18 *108:21 1.24289
54 *108:17 *108:20 1.4
55 *108:15 *835:B 1.4
56 *108:14 *108:18 1.4
57 *108:14 *108:17 0.99431
58 *108:13 *869:A 1.4
59 *108:12 *108:15 0.124289
60 *108:12 *108:14 0.248578
61 *108:11 *108:13 0.248578
62 *108:10 *108:12 1.49146
63 *108:8 *108:11 0.372866
64 *108:6 *108:10 0.248578
65 *108:5 *874:B 1.4
66 *108:5 *108:8 0.248578
67 *108:5 *108:7 0.220714
68 *108:5 *108:6 0.621444
69 *108:4 *108:5 1.4
70 *108:2 *108:4 1.1186
71 *108:1 *820:B0 1.4
72 *108:1 *108:2 1.4
73 *108:0 *108:1 0.220714
*END

*D_NET *109 0.00983439

*CONN
*I *531:Q O *C 29.145 47.705 *L 0 *D SDFFRHQX1
*I *532:SI I *C 15.515 50.895 *L 0.00276 *D SDFFRHQX1
*I *580:B I *C 34.365 53.505 *L 0.00184 *D MX2X1
*I *879:B I *C 11.455 40.455 *L 0.00167 *D NAND2XL
*I *797:A I *C 21.605 35.525 *L 0.00162 *D NOR2XL
*I *743:B0 I *C 15.515 32.335 *L 0.00265 *D AOI22X1
*I *881:A I *C 23.925 35.525 *L 0.00273 *D CLKINVX1
*I *749:B0 I *C 17.835 32.335 *L 0.00265 *D AOI22X1
*I *748:B0 I *C 26.535 32.335 *L 0.00265 *D AOI22X1
*I *750:A0 I *C 35.235 32.335 *L 0.00271 *D OAI21X1
*I *751:B0 I *C 34.075 32.335 *L 0.00265 *D AOI22X1

*CAP
1 *109:3 0.00108962
2 *109:4 0.000311417
3 *109:5 0.000778205
4 *109:6 0.000120803
5 *109:7 0.000387744
6 *109:8 0.000138061
7 *109:9 8.42922e-05
8 *109:10 0.00032031
9 *109:11 0.000154466
10 *109:12 0.000101151
11 *109:13 0.000127263
12 *109:14 0.000153898
13 *109:15 8.42922e-05
14 *109:16 0.000206802
15 *109:17 6.67574e-05
16 *109:19 7.95393e-05
17 *109:20 0.000202301
18 *109:21 5.00681e-05
19 *109:22 0.000134867
20 *109:23 0.00032031
21 *109:25 0.000134867
22 *109:26 0.000168584
23 *109:28 0.000252876
24 *109:29 0.000477236
25 *109:30 0.000202301
26 *109:31 0.000556775
27 *109:32 0.000143171
28 *109:33 7.95393e-05
29 *109:34 5.05753e-05
30 *109:35 0.000270434
31 *109:36 5.05753e-05
32 *109:37 5.05753e-05
33 *109:38 0.000127263
34 *109:39 3.37169e-05
35 *109:40 6.74337e-05
36 *109:42 3.37169e-05
37 *109:43 3.37169e-05
38 *109:44 0.000134867
39 *109:45 4.77236e-05
40 *109:46 3.37169e-05
41 *109:48 0.000118009
42 *881:A 4.77236e-05
43 *109:51 4.77236e-05
44 *109:52 0.000159775
45 *109:53 0.000163954
46 *109:54 0.000501727
47 *109:55 0.000449824
48 *109:56 6.90303e-05
49 *109:57 5.17727e-05
50 *109:58 6.90303e-05
51 *109:59 5.17727e-05
52 *109:60 3.46019e-05
53 *109:61 5.19028e-05
54 *748:B0 3.46019e-05
55 *750:A0 3.46019e-05
56 *109:64 5.19028e-05
57 *751:B0 3.46019e-05

*RES
1 *109:64 *751:B0 0.248566
2 *109:61 *109:64 0.124283
3 *109:61 *750:A0 0.248566
4 *109:60 *748:B0 0.248566
5 *109:59 *109:61 1.4
6 *109:58 *109:60 1.4
7 *109:57 *109:59 0.37285
8 *109:56 *109:58 0.497134
9 *109:55 *109:57 1.4
10 *109:54 *109:56 1.4
11 *109:54 *109:55 3.23136
12 *109:53 *109:54 0.372849
13 *109:52 *109:53 0.870018
14 *109:51 *109:52 0.372866
15 *109:48 *109:51 1.4
16 *109:46 *749:B0 1.4
17 *109:45 *881:A 0.372866
18 *109:44 *109:48 0.870021
19 *109:43 *743:B0 1.4
20 *109:42 *109:46 0.248578
21 *109:40 *109:45 1.4
22 *109:40 *109:44 0.124289
23 *109:39 *109:43 0.248578
24 *109:38 *109:42 1.4
25 *109:37 *797:A 1.4
26 *109:36 *109:40 0.372866
27 *109:35 *109:39 1.4
28 *109:35 *109:38 0.99431
29 *109:34 *109:37 0.372866
30 *109:33 *109:36 1.4
31 *109:32 *109:35 1.1186
32 *109:31 *109:34 1.4
33 *109:31 *109:33 0.621444
34 *109:30 *109:32 1.4
35 *109:29 *109:31 3.72866
36 *109:28 *109:30 1.49146
37 *109:28 *109:29 1.4
38 *109:26 *109:28 0.372866
39 *109:25 *879:B 1.4
40 *109:23 *109:26 0.870021
41 *109:22 *109:25 0.99431
42 *109:21 *580:B 1.4
43 *109:20 *109:23 1.49146
44 *109:19 *109:22 1.4
45 *109:17 *109:21 0.372849
46 *109:16 *109:20 1.4
47 *109:16 *109:19 0.621444
48 *109:15 *532:SI 1.4
49 *109:14 *109:17 0.124283
50 *109:13 *109:16 0.99431
51 *109:12 *109:15 0.621444
52 *109:11 *109:14 0.994267
53 *109:10 *109:13 1.4
54 *109:9 *109:12 0.124289
55 *109:8 *109:11 0.124283
56 *109:7 *109:10 2.36149
57 *109:7 *109:9 0.497155
58 *109:6 *109:8 0.869984
59 *109:5 *109:7 1.4
60 *109:4 *109:6 1.4
61 *109:3 *109:5 5.9658
62 *109:3 *109:4 2.23709
63 *109:1 *109:3 1.4
64 *109:1 *531:Q 1.4
65 *109:0 *109:1 0.03
*END

*D_NET *110 0.00151333

*CONN
*I *639:A I *C 68.875 37.845 *L 0.0017 *D MX2X1
*I *693:Y O *C 78.8175 40.745 *L 0 *D INVX1

*CAP
1 *110:1 0.000104215
2 *110:2 0.000104215
3 *110:3 0.000231949
4 *110:4 0.000248517
5 *110:5 0.000215381
6 *110:6 0.000215381
7 *110:7 0.000144228
8 *110:8 0.00012766
9 *110:9 6.08897e-05
10 *110:10 6.08897e-05

*RES
1 *110:10 *693:Y 1.4
2 *110:9 *110:10 0.497132
3 *110:8 *110:9 1.4
4 *110:7 *110:8 0.994265
5 *110:6 *110:7 0.124283
6 *110:5 *110:6 1.4914
7 *110:4 *110:5 0.124283
8 *110:3 *110:4 1.73996
9 *110:2 *110:3 1.4
10 *110:1 *110:2 0.745697
11 *639:A *110:1 1.4
*END

*D_NET *111 0.000972672

*CONN
*I *625:A I *C 77.285 32.625 *L 0.0017 *D MX2X1
*I *694:S O *C 77.865 41.035 *L 0 *D ADDFXL

*CAP
1 *111:1 0.000347383
2 *111:2 0.000382121
3 *111:3 0.000138953
4 *111:4 0.000104215

*RES
1 *111:4 *694:S 1.4
2 *111:3 *111:4 0.745697
3 *111:2 *111:3 0.248566
4 *111:1 *111:2 2.48566
5 *625:A *111:1 1.4
*END

*D_NET *112 0.00157846

*CONN
*I *695:S O *C 69.165 30.595 *L 0 *D ADDFX1
*I *638:A I *C 77.285 24.795 *L 0.0017 *D MX2X1

*CAP
1 *112:0 0.000104215
2 *112:1 0.000104215
3 *112:2 0.000463898
4 *112:4 0.000463898
5 *112:5 0.000221116
6 *112:6 0.000221116

*RES
1 *112:6 *638:A 1.4
2 *112:5 *112:6 1.6157
3 *112:4 *112:5 1.4
4 *112:2 *112:4 3.47992
5 *112:1 *695:S 1.4
6 *112:0 *112:2 1.4
7 *112:0 *112:1 0.745697
*END

*D_NET *113 0.00161424

*CONN
*I *696:S O *C 66.845 21.605 *L 0 *D ADDFX1
*I *636:A I *C 75.835 16.965 *L 0.0017 *D MX2X1

*CAP
1 *113:0 3.2657e-05
2 *113:1 3.2657e-05
3 *113:2 4.81398e-05
4 *113:4 6.41864e-05
5 *113:5 0.000160466
6 *113:6 0.000160466
7 *113:7 0.000320932
8 *113:8 0.000304885
9 *113:9 0.000244927
10 *113:10 0.000244927

*RES
1 *113:10 *636:A 1.4
2 *113:9 *113:10 1.86433
3 *113:8 *113:9 1.4
4 *113:7 *113:8 2.36138
5 *113:6 *113:7 0.124283
6 *113:5 *113:6 1.11855
7 *113:4 *113:5 0.124283
8 *113:2 *113:4 0.372849
9 *113:1 *696:S 1.4
10 *113:0 *113:2 1.4
11 *113:0 *113:1 0.248577
*END

*D_NET *114 0.00149207

*CONN
*I *697:S O *C 70.615 20.155 *L 0 *D ADDFX1
*I *635:A I *C 75.255 11.745 *L 0.0017 *D MX2X1

*CAP
1 *114:0 0.000228599
2 *114:1 0.000228599
3 *114:2 4.81398e-05
4 *114:4 6.41864e-05
5 *114:5 0.000144419
6 *114:6 0.000144419
7 *114:7 9.62795e-05
8 *114:8 8.0233e-05
9 *114:9 0.000228599
10 *114:10 0.000228599

*RES
1 *114:10 *635:A 1.4
2 *114:9 *114:10 1.74004
3 *114:8 *114:9 1.4
4 *114:7 *114:8 0.621415
5 *114:6 *114:7 0.124283
6 *114:5 *114:6 0.994264
7 *114:4 *114:5 0.124283
8 *114:2 *114:4 0.372849
9 *114:1 *697:S 1.4
10 *114:0 *114:2 1.4
11 *114:0 *114:1 1.74004
*END

*D_NET *115 0.00225051

*CONN
*I *629:A I *C 75.835 3.915 *L 0.0017 *D MX2X1
*I *698:S O *C 74.385 21.605 *L 0 *D ADDFX1

*CAP
1 *115:0 0.000604154
2 *115:1 0.000620482
3 *115:2 8.0233e-05
4 *115:3 0.000244927
5 *115:4 8.0233e-05
6 *115:5 0.000244927
7 *115:6 0.000114299
8 *115:7 8.16424e-05
9 *115:8 0.000114299
10 *115:9 6.53139e-05

*RES
1 *115:9 *698:S 1.4
2 *115:8 *629:A 1.4
3 *115:7 *115:9 0.497155
4 *115:6 *115:8 0.870021
5 *115:5 *115:7 0.124289
6 *115:4 *115:6 1.4
7 *115:3 *115:5 1.74004
8 *115:2 *115:4 0.621415
9 *115:1 *115:3 0.124289
10 *115:0 *115:2 1.4
11 *115:0 *115:1 4.59868
*END

*D_NET *116 0.000359227

*CONN
*I *699:S O *C 69.165 5.945 *L 0 *D ADDFX1
*I *628:A I *C 68.875 9.135 *L 0.0017 *D MX2X1

*CAP
1 *116:0 0.000179613
2 *116:1 1.63285e-05
3 *116:2 0.000163285

*RES
1 *116:2 *628:A 1.4
2 *116:1 *699:S 1.4
3 *116:0 *116:2 1.24289
4 *116:0 *116:1 0.124289
*END

*D_NET *117 0.000489854

*CONN
*I *627:A I *C 57.855 9.135 *L 0.0017 *D MX2X1
*I *700:S O *C 59.305 5.945 *L 0 *D ADDFX1

*CAP
1 *117:0 0.000195942
2 *117:1 0.000130628
3 *117:2 0.000114299
4 *117:3 4.89854e-05

*RES
1 *117:3 *700:S 1.4
2 *117:2 *627:A 1.4
3 *117:1 *117:3 0.372866
4 *117:0 *117:2 0.870021
5 *117:0 *117:1 0.621444
*END

*D_NET *118 0.00152998

*CONN
*I *626:A I *C 40.455 3.915 *L 0.0017 *D MX2X1
*I *701:S O *C 51.185 5.945 *L 0 *D ADDFX1

*CAP
1 *118:1 4.64999e-05
2 *118:2 4.64999e-05
3 *118:3 0.00064099
4 *118:4 0.00064099
5 *118:5 7.74999e-05
6 *118:6 7.74999e-05

*RES
1 *118:6 *701:S 1.4
2 *118:5 *118:6 0.621417
3 *118:4 *118:5 1.4
4 *118:3 *118:4 4.59847
5 *118:2 *118:3 1.4
6 *118:1 *118:2 0.37285
7 *626:A *118:1 1.4
*END

*D_NET *119 0.000372

*CONN
*I *633:A I *C 37.555 3.915 *L 0.0017 *D MX2X1
*I *702:S O *C 38.715 5.945 *L 0 *D ADDFX1

*CAP
1 *119:1 7.74999e-05
2 *119:2 0.0001395
3 *119:3 0.0001085
4 *119:4 4.64999e-05

*RES
1 *119:4 *702:S 1.4
2 *119:3 *119:4 0.37285
3 *119:2 *119:3 0.497134
4 *119:1 *119:2 0.621417
5 *633:A *119:1 1.4
*END

*D_NET *120 0.00107081

*CONN
*I *637:A I *C 23.635 9.135 *L 0.0017 *D MX2X1
*I *703:S O *C 30.305 5.945 *L 0 *D ADDFX1

*CAP
1 *120:2 0.000380407
2 *120:4 0.000380407
3 *120:5 0.000155
4 *120:6 0.000155

*RES
1 *120:6 *703:S 1.4
2 *120:5 *120:6 1.24283
3 *120:4 *120:5 1.4
4 *120:2 *120:4 2.85856
5 *120:1 *637:A 1.4
6 *120:1 *120:2 1.4
7 *120:0 *120:1 0.220714
*END

*D_NET *121 0.00107368

*CONN
*I *634:A I *C 15.515 6.525 *L 0.0017 *D MX2X1
*I *704:S O *C 22.765 9.715 *L 0 *D ADDFX1

*CAP
1 *121:1 9.4091e-05
2 *121:2 9.4091e-05
3 *121:3 0.000380024
4 *121:4 0.000380024
5 *121:5 6.27273e-05
6 *121:6 6.27273e-05

*RES
1 *121:6 *704:S 1.4
2 *121:5 *121:6 0.497155
3 *121:4 *121:5 1.4
4 *121:3 *121:4 3.10722
5 *121:2 *121:3 1.4
6 *121:1 *121:2 0.745733
7 *634:A *121:1 1.4
*END

*D_NET *122 0.00138444

*CONN
*I *641:A I *C 12.905 6.525 *L 0.0017 *D MX2X1
*I *705:S O *C 21.025 11.165 *L 0 *D ADDFX1

*CAP
1 *122:1 0.000141136
2 *122:2 0.000141136
3 *122:3 0.000425627
4 *122:4 0.000425627
5 *122:5 0.000125455
6 *122:6 0.000125455

*RES
1 *122:6 *705:S 1.4
2 *122:5 *122:6 0.99431
3 *122:4 *122:5 1.4
4 *122:3 *122:4 3.48009
5 *122:2 *122:3 1.4
6 *122:1 *122:2 1.1186
7 *641:A *122:1 1.4
*END

*D_NET *123 0.00106407

*CONN
*I *632:A I *C 4.205 11.745 *L 0.0017 *D MX2X1
*I *709:S O *C 13.485 11.165 *L 0 *D ADDFX1

*CAP
1 *123:2 7.60047e-05
2 *123:4 9.12057e-05
3 *123:5 0.00031922
4 *123:6 0.00031922
5 *123:7 4.56028e-05
6 *123:8 4.56028e-05
7 *123:9 9.12057e-05
8 *123:10 7.60047e-05

*RES
1 *123:11 *123:13 0.220714
2 *123:11 *709:S 1.4
3 *123:10 *123:11 1.4
4 *123:9 *123:10 0.621444
5 *123:8 *123:9 0.124289
6 *123:7 *123:8 0.248578
7 *123:6 *123:7 0.124289
8 *123:5 *123:6 2.48577
9 *123:4 *123:5 0.124289
10 *123:2 *123:4 0.621444
11 *123:1 *632:A 1.4
12 *123:1 *123:2 1.4
13 *123:0 *123:1 0.220714
*END

*D_NET *124 0.000921674

*CONN
*I *631:A I *C 6.235 16.965 *L 0.0017 *D MX2X1
*I *716:S O *C 12.035 20.155 *L 0 *D ADDFX1

*CAP
1 *124:1 9.4091e-05
2 *124:2 9.4091e-05
3 *124:3 0.000304019
4 *124:4 0.000304019
5 *124:5 6.27273e-05
6 *124:6 6.27273e-05

*RES
1 *124:6 *716:S 1.4
2 *124:5 *124:6 0.497155
3 *124:4 *124:5 1.4
4 *124:3 *124:4 2.48577
5 *124:2 *124:3 1.4
6 *124:1 *124:2 0.745733
7 *631:A *124:1 1.4
*END

*D_NET *125 0.000959092

*CONN
*I *630:A I *C 6.235 24.795 *L 0.0017 *D MX2X1
*I *727:S O *C 12.615 26.825 *L 0 *D ADDFX1

*CAP
1 *125:1 7.89975e-05
2 *125:2 7.89975e-05
3 *125:3 0.000349973
4 *125:4 0.000349973
5 *125:5 5.05753e-05
6 *125:6 5.05753e-05

*RES
1 *125:6 *727:S 1.4
2 *125:5 *125:6 0.372866
3 *125:4 *125:5 1.4
4 *125:3 *125:4 2.73435
5 *125:2 *125:3 1.4
6 *125:1 *125:2 0.621444
7 *630:A *125:1 1.4
*END

*D_NET *126 0.000481038

*CONN
*I *733:Y O *C 9.245 35.89 *L 0 *D AOI21XL
*I *642:A I *C 6.235 35.235 *L 0.0017 *D MX2X1

*CAP
1 *126:3 9.54472e-05
2 *126:4 0.000111355
3 *126:5 0.000111355
4 *126:6 9.54472e-05
5 *126:7 3.37169e-05
6 *126:8 3.37169e-05

*RES
1 *126:8 *642:A 1.4
2 *126:7 *126:8 0.248578
3 *126:6 *126:7 1.4
4 *126:5 *126:6 0.745733
5 *126:4 *126:5 0.124289
6 *126:3 *126:4 0.745733
7 *126:1 *126:3 1.4
8 *126:1 *733:Y 1.4
9 *126:0 *126:1 0.220714
*END

*D_NET *127 0.000526162

*CONN
*I *878:Y O *C 7.4775 40.455 *L 0 *D INVXL
*I *640:A I *C 5.365 43.065 *L 0.0017 *D MX2X1

*CAP
1 *127:3 0.000111355
2 *127:4 0.000111355
3 *127:5 0.000151726
4 *127:6 0.000151726

*RES
1 *127:6 *640:A 1.4
2 *127:5 *127:6 1.1186
3 *127:4 *127:5 1.4
4 *127:3 *127:4 0.870021
5 *127:1 *127:3 1.4
6 *127:1 *878:Y 1.4
7 *127:0 *127:1 0.220714
*END

*D_NET *128 0.00438393

*CONN
*I *874:A I *C 14.935 30.015 *L 0.0017 *D MX2X1
*I *835:A I *C 15.805 35.235 *L 0.0017 *D MXI2XL
*I *869:B I *C 18.13 29.675 *L 0.00164 *D MXI2XL
*I *839:A I *C 21.025 32.625 *L 0.0017 *D MXI2XL
*I *887:Y O *C 21.1075 35.525 *L 0 *D CLKINVX1
*I *797:B I *C 21.895 35.235 *L 0.00171 *D NOR2XL
*I *833:B I *C 27.41 34.895 *L 0.00164 *D MXI2XL
*I *873:B I *C 30.89 34.895 *L 0.00164 *D MXI2XL
*I *829:B I *C 32.34 38.185 *L 0.00164 *D MXI2XL
*I *832:B I *C 33.21 34.895 *L 0.00164 *D MXI2XL
*I *826:A I *C 34.365 35.235 *L 0.0017 *D MXI2XL

*CAP
1 *128:1 8.42922e-05
2 *128:2 0.000118009
3 *128:3 5.05753e-05
4 *128:4 0.000143171
5 *128:5 0.000236018
6 *128:6 0.000174987
7 *128:7 0.00021916
8 *128:8 4.77236e-05
9 *128:9 0.000101151
10 *128:11 0.000143171
11 *128:12 0.000101151
12 *128:13 0.000127263
13 *128:15 5.05753e-05
14 *128:16 0.000168584
15 *128:17 0.00021916
16 *128:19 5.05753e-05
17 *128:20 8.42922e-05
18 *128:22 6.36315e-05
19 *128:23 3.37169e-05
20 *128:24 7.95393e-05
21 *128:26 0.000308518
22 *128:27 0.000500222
23 *128:28 0.000259514
24 *128:29 5.17727e-05
25 *128:30 6.92037e-05
26 *128:31 5.17727e-05
27 *128:32 5.17727e-05
28 *128:33 5.19028e-05
29 *128:34 5.17727e-05
30 *128:36 8.65046e-05
31 *128:38 5.19028e-05
32 *128:39 0.000120803
33 *128:40 3.45151e-05
34 *128:41 0.000120803
35 *128:42 0.000103545
36 *128:44 5.17727e-05
37 *128:45 3.45151e-05
38 *128:46 3.45151e-05
39 *128:48 1.72576e-05
40 *128:49 1.73009e-05
41 *826:A 1.73009e-05

*RES
1 *128:49 *826:A 0.124283
2 *128:48 *128:49 1.4
3 *128:46 *128:48 0.124283
4 *128:45 *832:B 1.4
5 *128:44 *128:46 0.124283
6 *128:42 *128:45 0.248567
7 *128:42 *128:44 0.248567
8 *128:41 *829:B 1.4
9 *128:40 *128:42 0.248567
10 *128:39 *128:41 0.869984
11 *128:38 *128:40 1.4
12 *128:36 *128:39 1.4
13 *128:36 *128:38 0.372849
14 *128:34 *873:B 1.4
15 *128:33 *128:36 0.248566
16 *128:32 *833:B 1.4
17 *128:31 *128:34 0.37285
18 *128:30 *128:33 0.124283
19 *128:29 *128:32 0.37285
20 *128:28 *128:31 1.4
21 *128:28 *128:30 0.372849
22 *128:27 *128:29 1.4
23 *128:27 *128:28 1.49139
24 *128:26 *128:27 2.23717
25 *128:24 *128:26 0.124289
26 *128:23 *797:B 1.4
27 *128:22 *128:24 0.497155
28 *128:20 *128:23 0.248578
29 *128:19 *128:22 1.4
30 *128:19 *887:Y 1.4
31 *128:17 *128:20 0.372866
32 *128:17 *128:19 0.372866
33 *128:16 *839:A 1.4
34 *128:16 *128:17 0.870021
35 *128:15 *128:16 0.372866
36 *128:13 *128:15 1.4
37 *128:12 *869:B 1.4
38 *128:11 *128:13 0.99431
39 *128:9 *128:12 0.745732
40 *128:8 *128:11 0.124289
41 *128:7 *835:A 1.4
42 *128:6 *128:9 1.4
43 *128:6 *128:8 0.248578
44 *128:5 *128:7 1.61575
45 *128:4 *128:6 1.1186
46 *128:3 *128:5 0.124289
47 *128:3 *128:4 1.4
48 *128:2 *128:3 0.248578
49 *128:1 *128:2 0.621444
50 *874:A *128:1 1.4
*END

*D_NET *129 0.00612691

*CONN
*I *886:Y O *C 17.9175 25.085 *L 0 *D CLKINVX1
*I *831:B I *C 18.13 19.235 *L 0.00164 *D MXI2XL
*I *821:A I *C 15.225 24.795 *L 0.0017 *D MXI2XL
*I *868:B I *C 15.81 22.525 *L 0.00164 *D MXI2XL
*I *871:B I *C 22.48 19.235 *L 0.00164 *D MXI2XL
*I *842:A I *C 30.885 27.405 *L 0.0017 *D MX2X1
*I *866:B I *C 29.73 19.235 *L 0.00164 *D MXI2XL
*I *867:A I *C 36.395 22.185 *L 0.0017 *D MXI2XL
*I *872:B I *C 34.37 19.235 *L 0.00164 *D MXI2XL
*I *836:A I *C 37.265 24.795 *L 0.0017 *D MXI2XL
*I *824:A I *C 38.715 22.185 *L 0.0017 *D MXI2XL

*CAP
1 *129:1 9.4091e-05
2 *129:3 0.000106407
3 *129:4 0.000109773
4 *129:5 0.000121608
5 *129:6 0.000188182
6 *129:7 4.56028e-05
7 *129:8 0.000219546
8 *129:9 3.04019e-05
9 *129:10 4.56028e-05
10 *129:11 4.70455e-05
11 *129:12 0.000125455
12 *129:13 6.08038e-05
13 *129:15 0.000156818
14 *129:17 0.000152009
15 *129:18 3.13637e-05
16 *129:19 0.000152009
17 *129:21 6.08038e-05
18 *129:22 4.56028e-05
19 *129:23 0.000235227
20 *129:24 0.000188182
21 *129:25 4.70455e-05
22 *129:26 0.000406563
23 *129:28 0.000475859
24 *129:29 6.92962e-05
25 *129:30 0.000186
26 *129:31 0.000209409
27 *129:32 0.0002325
28 *129:33 0.000209409
29 *129:34 5.19722e-05
30 *129:35 4.64999e-05
31 *129:37 6.92962e-05
32 *129:39 0.000173241
33 *129:40 0.000173241
34 *129:41 6.92962e-05
35 *129:42 0.000190565
36 *129:43 0.000190565
37 *129:44 4.64999e-05
38 *129:45 5.19722e-05
39 *129:46 0.0001085
40 *129:47 6.19999e-05
41 *129:48 7.74999e-05
42 *129:49 0.0001085
43 *129:50 1.55e-05
44 *129:51 0.00031
45 *129:54 0.0001705
46 *129:55 9.29999e-05
47 *129:57 3.1e-05
48 *129:58 1.73241e-05
49 *824:A 1.73241e-05

*RES
1 *129:58 *824:A 0.124283
2 *129:57 *129:58 1.4
3 *129:55 *129:57 0.248567
4 *129:54 *836:A 1.4
5 *129:51 *129:55 0.497134
6 *129:51 *129:54 1.36712
7 *129:50 *872:B 1.4
8 *129:49 *867:A 1.4
9 *129:48 *129:51 0.621417
10 *129:47 *129:50 0.124283
11 *129:46 *129:49 0.869984
12 *129:45 *129:48 1.4
13 *129:44 *129:47 0.37285
14 *129:43 *129:46 1.4
15 *129:43 *129:45 0.372849
16 *129:42 *129:44 1.4
17 *129:42 *129:43 0.994263
18 *129:41 *129:42 0.372849
19 *129:40 *129:41 0.124283
20 *129:39 *129:40 1.11855
21 *129:37 *129:39 0.124283
22 *129:35 *866:B 1.4
23 *129:34 *129:37 0.372849
24 *129:33 *842:A 1.4
25 *129:32 *129:35 0.37285
26 *129:32 *129:34 1.4
27 *129:31 *129:33 1.61568
28 *129:30 *129:32 1.4914
29 *129:29 *129:31 1.4
30 *129:28 *129:30 1.4
31 *129:28 *129:29 0.497132
32 *129:26 *129:28 3.10715
33 *129:25 *871:B 1.4
34 *129:24 *129:26 1.4
35 *129:23 *129:25 0.372866
36 *129:23 *129:24 1.49147
37 *129:22 *129:23 1.4
38 *129:21 *129:22 0.372866
39 *129:19 *129:21 0.124289
40 *129:18 *868:B 1.4
41 *129:17 *129:19 1.1186
42 *129:15 *129:18 0.248578
43 *129:13 *129:17 0.124289
44 *129:12 *821:A 1.4
45 *129:12 *129:15 0.99431
46 *129:11 *831:B 1.4
47 *129:10 *129:13 0.372866
48 *129:9 *129:12 1.4
49 *129:8 *129:11 0.372866
50 *129:8 *129:10 1.4
51 *129:7 *129:9 0.248578
52 *129:6 *129:8 1.36718
53 *129:5 *129:7 0.124289
54 *129:4 *129:6 0.124289
55 *129:3 *129:5 0.870021
56 *129:1 *129:4 0.745733
57 *129:1 *129:3 1.4
58 *129:1 *886:Y 1.4
59 *129:0 *129:1 0.220714
*END

*D_NET *130 0.00387631

*CONN
*I *864:B I *C 65.4 34.895 *L 0.00164 *D MXI2XL
*I *863:B I *C 63.08 34.895 *L 0.00164 *D MXI2XL
*I *861:A I *C 62.495 37.845 *L 0.0017 *D MXI2XL
*I *865:B I *C 60.76 34.895 *L 0.00164 *D MXI2XL
*I *885:Y O *C 54.4575 37.555 *L 0 *D CLKINVX1
*I *859:B I *C 55.54 34.895 *L 0.00164 *D MXI2XL
*I *860:B I *C 51.19 34.895 *L 0.00164 *D MXI2XL
*I *858:B I *C 48.87 34.895 *L 0.00164 *D MXI2XL
*I *857:A I *C 49.155 37.845 *L 0.0017 *D MXI2XL
*I *862:B I *C 48 38.185 *L 0.00164 *D MXI2XL

*CAP
1 *130:2 0.000132542
2 *130:4 0.000132542
3 *130:5 8.68457e-05
4 *130:6 0.000121584
5 *130:8 0.000121584
6 *130:9 9.94068e-05
7 *130:10 8.68457e-05
8 *130:11 0.000414195
9 *130:13 0.000364492
10 *130:14 8.68457e-05
11 *130:15 0.000156322
12 *130:16 6.62712e-05
13 *130:17 8.68457e-05
14 *130:18 6.94766e-05
15 *130:19 0.000104215
16 *130:20 0.000149477
17 *130:22 4.97034e-05
18 *130:23 1.73691e-05
19 *130:24 0.00015021
20 *885:Y 4.97034e-05
21 *130:27 6.92037e-05
22 *130:28 0.00019031
23 *130:29 0.000138407
24 *130:30 8.62879e-05
25 *130:31 0.000224348
26 *130:32 8.62879e-05
27 *130:33 0.000207091
28 *130:34 8.62879e-05
29 *130:36 6.90303e-05
30 *130:37 8.62879e-05
31 *130:39 5.17727e-05
32 *130:40 3.45151e-05

*RES
1 *130:40 *862:B 1.4
2 *130:39 *857:A 1.4
3 *130:37 *130:40 0.248567
4 *130:36 *130:39 0.37285
5 *130:34 *858:B 1.4
6 *130:33 *130:37 0.37285
7 *130:33 *130:36 0.124283
8 *130:32 *860:B 1.4
9 *130:31 *130:34 0.621417
10 *130:31 *130:33 0.994267
11 *130:30 *130:32 0.621417
12 *130:29 *130:31 1.4
13 *130:28 *130:30 1.4
14 *130:28 *130:29 0.994263
15 *130:27 *130:28 0.372849
16 *130:24 *130:27 0.124283
17 *130:23 *859:B 1.4
18 *130:22 *885:Y 0.372849
19 *130:20 *130:24 0.994264
20 *130:19 *130:23 0.124283
21 *130:18 *130:22 1.4
22 *130:17 *865:B 1.4
23 *130:16 *130:20 0.124283
24 *130:15 *130:19 0.621415
25 *130:15 *130:18 0.497132
26 *130:14 *130:17 0.621415
27 *130:13 *130:16 0.372849
28 *130:13 *130:15 1.4
29 *130:11 *130:14 1.4
30 *130:11 *130:13 2.36138
31 *130:10 *861:A 1.4
32 *130:9 *130:11 0.745698
33 *130:8 *130:10 0.621415
34 *130:8 *130:9 1.4
35 *130:6 *130:8 0.248566
36 *130:5 *863:B 1.4
37 *130:5 *130:6 0.621415
38 *130:4 *130:5 1.4
39 *130:2 *130:4 0.994264
40 *130:1 *864:B 1.4
41 *130:1 *130:2 1.4
42 *130:0 *130:1 0.220714
*END

*D_NET *131 0.00576827

*CONN
*I *855:B I *C 65.98 38.185 *L 0.00164 *D MXI2XL
*I *853:A I *C 60.175 37.845 *L 0.0017 *D MXI2XL
*I *854:A I *C 63.075 40.455 *L 0.0017 *D MXI2XL
*I *884:Y O *C 57.3575 37.555 *L 0 *D CLKINVX1
*I *847:B I *C 60.18 29.675 *L 0.00164 *D MXI2XL
*I *880:A I *C 56.405 32.335 *L 0.00162 *D NOR2XL
*I *849:B I *C 62.5 32.965 *L 0.00164 *D MXI2XL
*I *850:B I *C 52.64 29.675 *L 0.00164 *D MXI2XL
*I *852:B I *C 50.32 29.675 *L 0.00164 *D MXI2XL
*I *851:B I *C 50.61 32.965 *L 0.00164 *D MXI2XL
*I *840:A0 I *C 52.635 35.525 *L 0.00265 *D AOI21X1

*CAP
1 *131:2 8.2839e-05
2 *131:4 9.94068e-05
3 *131:5 0.000231949
4 *131:6 0.000248517
5 *131:7 6.62712e-05
6 *131:8 3.31356e-05
7 *131:9 0.000156322
8 *853:A 6.62712e-05
9 *131:11 0.000156322
10 *131:12 8.2839e-05
11 *131:13 0.000165678
12 *131:14 4.97034e-05
13 *854:A 0.000165678
14 *131:16 9.94068e-05
15 *884:Y 6.62712e-05
16 *131:18 5.21074e-05
17 *131:19 6.94766e-05
18 *131:20 0.000191061
19 *131:21 0.000191061
20 *131:22 0.000173691
21 *131:23 0.000156322
22 *131:24 0.000215381
23 *131:25 0.000231949
24 *131:26 0.000331356
25 *131:27 0.000132542
26 *131:28 8.68457e-05
27 *131:29 0.000352689
28 *131:30 6.94766e-05
29 *131:31 0.000104215
30 *131:32 8.68457e-05
31 *131:33 0.000137308
32 *131:34 8.68457e-05
33 *131:35 6.94766e-05
34 *131:36 0.000104215
35 *131:38 0.000138061
36 *131:39 8.68457e-05
37 *131:42 6.90303e-05
38 *131:43 8.62879e-05
39 *131:45 0.000120803
40 *131:47 5.17727e-05
41 *131:48 0.000172576
42 *131:50 0.000155318
43 *131:51 0.000120803
44 *131:52 8.62879e-05
45 *131:53 3.35022e-05
46 *840:A0 3.35022e-05

*RES
1 *131:53 *840:A0 0.248566
2 *131:52 *131:53 1.4
3 *131:51 *131:52 0.621417
4 *131:50 *131:51 0.248567
5 *131:48 *131:50 0.869984
6 *131:47 *851:B 1.4
7 *131:45 *131:48 0.37285
8 *131:45 *131:47 0.37285
9 *131:43 *852:B 1.4
10 *131:42 *131:45 0.124283
11 *131:39 *850:B 1.4
12 *131:38 *131:43 0.621417
13 *131:38 *131:42 0.37285
14 *131:36 *849:B 1.4
15 *131:35 *880:A 1.4
16 *131:34 *131:39 0.621415
17 *131:33 *131:38 1.4
18 *131:32 *847:B 1.4
19 *131:31 *131:36 0.745697
20 *131:30 *131:35 0.497132
21 *131:29 *131:34 1.4
22 *131:29 *131:33 0.994263
23 *131:28 *131:32 0.621415
24 *131:27 *131:31 1.4
25 *131:26 *131:30 1.4
26 *131:26 *131:29 1.61568
27 *131:25 *131:28 1.4
28 *131:25 *131:27 0.994264
29 *131:24 *131:26 0.869981
30 *131:24 *131:25 0.745698
31 *131:23 *131:24 1.4
32 *131:22 *131:23 1.11855
33 *131:21 *131:22 0.124283
34 *131:20 *131:21 1.24283
35 *131:19 *131:20 0.124283
36 *131:18 *131:19 0.372849
37 *131:16 *131:18 1.4
38 *131:16 *884:Y 0.497132
39 *131:14 *131:16 0.248566
40 *131:13 *854:A 1.24283
41 *131:12 *131:14 0.124283
42 *131:11 *131:13 1.4
43 *853:A *131:12 0.497132
44 *131:9 *131:11 1.11855
45 *131:9 *853:A 1.4
46 *131:8 *131:9 1.4
47 *131:7 *131:8 0.248566
48 *131:6 *131:7 0.248566
49 *131:5 *131:6 1.61568
50 *131:4 *131:5 0.124283
51 *131:2 *131:4 0.621415
52 *131:1 *855:B 1.4
53 *131:1 *131:2 1.4
54 *131:0 *131:1 0.220714
*END

*D_NET *132 0.00758134

*CONN
*I *838:B I *C 42.78 22.525 *L 0.00164 *D MXI2XL
*I *825:B I *C 50.03 19.235 *L 0.00164 *D MXI2XL
*I *883:Y O *C 41.1175 30.305 *L 0 *D CLKINVX1
*I *837:B I *C 35.24 22.525 *L 0.00164 *D MXI2XL
*I *834:B I *C 56.41 22.525 *L 0.00164 *D MXI2XL
*I *823:B I *C 54.09 19.235 *L 0.00164 *D MXI2XL
*I *827:B I *C 57.86 24.455 *L 0.00164 *D MXI2XL
*I *819:A I *C 33.205 30.015 *L 0.0017 *D MXI2XL
*I *830:A I *C 59.015 24.795 *L 0.0017 *D MXI2XL
*I *841:A I *C 45.675 35.235 *L 0.0017 *D MX2X1
*I *870:B I *C 32.92 22.525 *L 0.00164 *D MXI2XL
*I *848:A0 I *C 31.755 24.795 *L 0.00264 *D AOI22X1

*CAP
1 *132:2 0.000537046
2 *132:4 0.000667335
3 *132:5 0.000450426
4 *132:6 0.000362606
5 *132:7 0.0001705
6 *132:8 0.000443985
7 *132:9 0.000346481
8 *132:10 0.000208606
9 *132:11 0.000179613
10 *132:12 0.0001705
11 *132:13 0.000530272
12 *132:14 4.64999e-05
13 *132:15 8.0233e-05
14 *132:17 0.000179613
15 *132:20 8.62879e-05
16 *132:21 4.64999e-05
17 *132:23 6.53139e-05
18 *132:27 0.000311417
19 *132:28 0.000121268
20 *132:29 0.000163285
21 *132:30 0.000311417
22 *132:31 0.000173241
23 *132:32 4.89854e-05
24 *132:33 8.16424e-05
25 *132:34 0.000138061
26 *132:35 5.19722e-05
27 *132:36 0.000380227
28 *132:38 4.89854e-05
29 *132:39 0.000172576
30 *132:40 7.74999e-05
31 *132:41 0.000380227
32 *132:42 4.89854e-05
33 *132:43 0.000103545
34 *132:44 6.19999e-05
35 *132:45 7.74999e-05
36 *132:47 3.2657e-05
37 *132:48 6.90303e-05
38 *132:49 7.74999e-05
39 *132:50 3.1e-05
40 *132:53 4.64999e-05

*RES
1 *132:53 *848:A0 1.4
2 *132:50 *870:B 1.4
3 *132:49 *132:53 0.37285
4 *132:48 *841:A 1.4
5 *132:47 *830:A 1.4
6 *132:45 *132:50 0.248567
7 *132:44 *132:49 0.248567
8 *132:43 *132:48 0.497134
9 *132:42 *132:47 0.248577
10 *132:41 *819:A 1.4
11 *132:40 *132:45 0.37285
12 *132:40 *132:44 0.248567
13 *132:39 *132:43 0.248567
14 *132:38 *132:42 0.124289
15 *132:36 *132:41 2.85852
16 *132:35 *132:40 1.4
17 *132:34 *132:39 0.994267
18 *132:33 *132:38 0.248577
19 *132:32 *827:B 1.4
20 *132:31 *132:36 1.4
21 *132:31 *132:35 0.372849
22 *132:30 *132:34 1.4
23 *132:29 *132:33 0.372866
24 *132:29 *132:32 0.372866
25 *132:28 *132:31 0.86998
26 *132:27 *132:30 2.23709
27 *132:23 *132:29 0.497155
28 *132:21 *132:28 1.4
29 *132:20 *132:27 1.4
30 *132:17 *823:B 1.4
31 *132:16 *834:B 1.4
32 *132:16 *132:24 0.220714
33 *132:15 *132:23 1.4
34 *132:14 *837:B 1.4
35 *132:14 *132:21 0.37285
36 *132:13 *132:20 0.621417
37 *132:13 *883:Y 1.4
38 *132:12 *825:B 1.4
39 *132:11 *132:17 1.36718
40 *132:10 *132:16 1.4
41 *132:10 *132:15 0.621415
42 *132:9 *132:14 1.4
43 *132:8 *132:13 3.35565
44 *132:7 *132:12 1.36712
45 *132:6 *132:11 1.4
46 *132:6 *132:10 0.994264
47 *132:5 *132:9 2.48566
48 *132:5 *132:8 1.4
49 *132:4 *132:7 1.4
50 *132:4 *132:6 1.73996
51 *132:2 *132:5 0.745697
52 *132:2 *132:4 3.10707
53 *132:1 *838:B 1.4
54 *132:1 *132:2 1.4
55 *132:0 *132:1 0.220714
*END

*D_NET *133 0.00726544

*CONN
*I *848:B0 I *C 32.915 25.085 *L 0.00265 *D AOI22X1
*I *800:A I *C 35.235 25.085 *L 0.00162 *D NOR2XL
*I *798:A I *C 19.575 19.865 *L 0.00162 *D NOR2XL
*I *882:Y O *C 17.6275 27.115 *L 0 *D CLKINVX1
*I *786:A I *C 44.515 27.115 *L 0.00162 *D NOR2XL
*I *799:A I *C 14.645 27.115 *L 0.00162 *D NOR2XL
*I *822:B I *C 14.07 24.455 *L 0.00164 *D MXI2XL
*I *781:A I *C 48.575 24.795 *L 0.00157 *D NAND2XL
*I *743:A0 I *C 14.355 32.625 *L 0.00264 *D AOI22X1
*I *856:B I *C 43.65 32.965 *L 0.00164 *D MXI2XL

*CAP
1 *133:2 0.000887729
2 *133:4 0.000138592
3 *133:5 0.000749137
4 *133:6 9.73939e-05
5 *133:7 0.000345589
6 *133:8 9.73939e-05
7 *133:11 0.000113891
8 *133:12 0.000282273
9 *133:13 5.19028e-05
10 *133:14 5.05753e-05
11 *133:15 0.000270434
12 *133:17 6.92037e-05
13 *133:18 0.000111355
14 *133:19 0.000318157
15 *133:20 0.000484426
16 *882:Y 0.000111355
17 *133:22 4.77236e-05
18 *133:23 5.05753e-05
19 *133:24 0.000501727
20 *133:25 9.46793e-05
21 *133:26 0.000101151
22 *786:A 3.46019e-05
23 *133:28 0.000181924
24 *133:29 0.000110361
25 *133:30 6.74337e-05
26 *133:32 6.90303e-05
27 *133:33 0.000130151
28 *133:34 1.56818e-05
29 *133:35 0.000269735
30 *133:36 0.000310636
31 *133:37 0.000277185
32 *133:39 0.000252876
33 *133:40 0.000293379
34 *781:A 0.000277185

*RES
1 *133:40 *856:B 1.4
2 *133:39 *743:A0 1.4
3 *133:37 *781:A 1.98853
4 *133:36 *133:40 2.11282
5 *133:35 *133:39 1.86433
6 *133:34 *822:B 1.4
7 *133:33 *133:37 1.4
8 *133:32 *133:36 0.124283
9 *133:30 *133:35 0.124289
10 *133:29 *133:34 0.124289
11 *133:28 *133:33 0.994267
12 *133:28 *133:32 0.37285
13 *133:26 *799:A 1.4
14 *133:26 *133:30 0.372866
15 *133:25 *133:29 0.745733
16 *133:24 *133:28 1.4
17 *133:24 *786:A 0.248566
18 *133:23 *133:26 0.372866
19 *133:22 *133:25 1.4
20 *133:20 *133:24 3.35564
21 *133:19 *133:23 1.4
22 *133:19 *133:22 0.372866
23 *133:18 *882:Y 0.870021
24 *133:17 *133:20 0.124283
25 *133:15 *133:19 2.11291
26 *133:14 *133:18 1.4
27 *133:13 *133:17 0.372849
28 *133:12 *798:A 1.4
29 *133:11 *133:15 1.4
30 *133:11 *133:14 0.372866
31 *133:8 *133:13 1.4
32 *133:7 *133:12 2.2372
33 *133:7 *133:11 0.497155
34 *133:6 *800:A 1.4
35 *133:6 *133:9 0.220714
36 *133:6 *133:8 0.7457
37 *133:5 *133:7 1.4
38 *133:4 *133:6 1.4
39 *133:2 *133:5 5.71715
40 *133:2 *133:4 0.994263
41 *133:1 *848:B0 1.4
42 *133:1 *133:2 1.4
43 *133:0 *133:1 0.220714
*END

*D_NET *134 0.00237477

*CONN
*I *753:B0 I *C 31.755 32.335 *L 0.00262 *D OAI22X1
*I *760:B0 I *C 29.435 32.335 *L 0.00262 *D OAI22X1
*I *757:B0 I *C 20.155 32.335 *L 0.00262 *D OAI22X1
*I *881:Y O *C 24.2975 35.525 *L 0 *D CLKINVX1
*I *752:B0 I *C 20.735 30.305 *L 0.00262 *D OAI22X1

*CAP
1 *134:2 1.73009e-05
2 *134:4 1.73009e-05
3 *134:6 5.17727e-05
4 *134:7 5.17727e-05
5 *134:8 0.000121107
6 *134:9 0.000276815
7 *134:10 0.000155708
8 *134:11 5.17727e-05
9 *134:12 3.45151e-05
10 *134:13 5.17727e-05
11 *134:14 3.45151e-05
12 *134:16 0.000162561
13 *134:17 0.000178469
14 *134:18 0.000190894
15 *134:19 0.000134867
16 *134:20 0.000174987
17 *134:21 0.000151726
18 *134:22 0.000118009
19 *134:23 5.05753e-05
20 *134:24 0.000134867
21 *134:25 3.18157e-05
22 *134:26 3.37169e-05
23 *134:27 5.05753e-05
24 *757:B0 3.18157e-05
25 *134:30 3.37169e-05
26 *134:31 1.59079e-05
27 *752:B0 1.59079e-05

*RES
1 *134:31 *752:B0 0.124289
2 *134:30 *134:31 1.4
3 *134:27 *134:30 0.248578
4 *134:26 *881:Y 1.4
5 *134:25 *757:B0 0.248578
6 *134:24 *134:27 0.124289
7 *134:23 *134:26 0.248578
8 *134:22 *134:25 1.4
9 *134:22 *134:24 0.870021
10 *134:21 *134:23 0.124289
11 *134:20 *134:22 1.4
12 *134:19 *134:21 0.99431
13 *134:18 *134:20 1.36718
14 *134:18 *134:19 1.4
15 *134:17 *134:18 0.124289
16 *134:16 *134:17 1.24287
17 *134:14 *134:16 1.4
18 *134:13 *760:B0 1.4
19 *134:12 *134:14 0.248567
20 *134:11 *134:13 0.37285
21 *134:10 *134:12 1.4
22 *134:9 *134:11 1.4
23 *134:9 *134:10 1.11855
24 *134:8 *134:9 0.86998
25 *134:7 *134:8 1.4
26 *134:6 *134:7 0.37285
27 *134:4 *134:6 1.4
28 *134:2 *134:5 0.212143
29 *134:2 *134:4 0.124283
30 *134:1 *753:B0 1.4
31 *134:1 *134:2 1.4
32 *134:0 *134:1 0.220714
*END

*D_NET *135 0.00250239

*CONN
*I *781:B I *C 49.155 24.795 *L 0.00167 *D NAND2XL
*I *840:B0 I *C 53.215 35.235 *L 0.00277 *D AOI21X1
*I *880:Y O *C 56.985 32.915 *L 0 *D NOR2XL

*CAP
1 *135:1 3.1e-05
2 *135:2 0.000420015
3 *135:3 0.000406273
4 *135:4 0.000189833
5 *135:5 0.000172576
6 *135:6 0.000222346
7 *135:7 0.000437728
8 *135:8 0.000215381
9 *135:9 5.21074e-05
10 *135:10 5.21074e-05
11 *135:11 5.21074e-05
12 *135:12 5.21074e-05
13 *135:14 3.31356e-05
14 *135:15 6.62712e-05
15 *135:16 6.62712e-05
16 *880:Y 3.31356e-05

*RES
1 *135:16 *880:Y 0.248566
2 *135:15 *135:16 0.248566
3 *135:14 *135:15 0.248566
4 *135:12 *135:14 1.4
5 *135:11 *840:B0 1.4
6 *135:10 *135:12 0.372849
7 *135:9 *135:11 0.372849
8 *135:8 *135:10 1.4
9 *135:7 *135:9 1.4
10 *135:7 *135:8 1.61568
11 *135:6 *135:7 1.61568
12 *135:5 *135:6 1.4
13 *135:4 *135:5 1.24283
14 *135:3 *135:4 0.124283
15 *135:2 *135:3 2.85852
16 *135:1 *135:2 0.248567
17 *781:B *135:1 1.4
*END

*D_NET *136 0.000802998

*CONN
*I *879:Y O *C 11.455 41.035 *L 0 *D NAND2XL
*I *828:B I *C 9.425 40.455 *L 0.00167 *D NAND2XL
*I *878:A I *C 7.115 40.5175 *L 0.00163 *D INVXL

*CAP
1 *136:3 4.77236e-05
2 *136:4 6.36315e-05
3 *136:5 9.54472e-05
4 *136:6 0.000238618
5 *136:7 0.000159079
6 *136:8 3.37169e-05
7 *136:9 3.37169e-05
8 *136:10 3.37169e-05
9 *136:11 3.37169e-05
10 *136:13 3.18157e-05
11 *878:A 3.18157e-05

*RES
1 *136:13 *878:A 0.248578
2 *136:11 *136:13 1.4
3 *136:10 *828:B 1.4
4 *136:9 *136:11 0.248578
5 *136:8 *136:10 0.248578
6 *136:7 *136:9 1.4
7 *136:6 *136:8 1.4
8 *136:6 *136:7 1.24289
9 *136:5 *136:6 0.621444
10 *136:4 *136:5 0.124289
11 *136:3 *136:4 0.372866
12 *136:1 *136:3 1.4
13 *136:1 *879:Y 1.4
14 *136:0 *136:1 0.220714
*END

*D_NET *137 0.000655788

*CONN
*I *877:Y O *C 29.145 34.945 *L 0 *D NOR2XL
*I *783:A0 I *C 29.725 30.305 *L 0.00271 *D OAI21X1

*CAP
1 *137:0 8.62879e-05
2 *137:1 6.90303e-05
3 *137:2 3.45151e-05
4 *137:4 3.45151e-05
5 *137:5 0.000224348
6 *137:6 0.000207091

*RES
1 *137:6 *783:A0 1.4
2 *137:5 *137:6 1.4914
3 *137:4 *137:5 0.124283
4 *137:2 *137:4 0.124283
5 *137:1 *877:Y 1.4
6 *137:0 *137:2 0.124283
7 *137:0 *137:1 0.497134
*END

*D_NET *138 0.000839119

*CONN
*I *876:Y O *C 11.455 32.915 *L 0 *D NOR2XL
*I *782:A0 I *C 13.195 27.115 *L 0.00271 *D OAI21X1

*CAP
1 *876:Y 3.18157e-05
2 *138:1 3.18157e-05
3 *138:2 0.000101151
4 *138:3 0.000168584
5 *138:4 0.000286593
6 *138:5 0.00021916

*RES
1 *138:5 *782:A0 1.4
2 *138:4 *138:5 1.61575
3 *138:3 *138:4 0.497155
4 *138:2 *138:3 0.745732
5 *138:1 *138:2 1.4
6 *876:Y *138:1 0.248578
*END

*D_NET *139 0.000379667

*CONN
*I *875:Y O *C 41.035 38.135 *L 0 *D NOR2XL
*I *784:A0 I *C 41.325 35.525 *L 0.00271 *D OAI21X1

*CAP
1 *139:0 0.000155318
2 *139:1 0.000138061
3 *139:2 5.17727e-05
4 *139:4 3.45151e-05

*RES
1 *139:4 *784:A0 1.4
2 *139:2 *139:4 0.248567
3 *139:1 *875:Y 1.4
4 *139:0 *139:2 0.124283
5 *139:0 *139:1 0.994267
*END

*D_NET *140 0.00075994

*CONN
*I *857:Y O *C 49.445 37.265 *L 0 *D MXI2XL
*I *802:A I *C 51.475 37.845 *L 0.00157 *D NAND2XL

*CAP
1 *140:1 0.000138061
2 *140:2 0.000138061
3 *140:3 0.000121107
4 *140:4 0.000121107
5 *140:5 0.000120803
6 *140:6 0.000120803

*RES
1 *140:6 *802:A 1.4
2 *140:5 *140:6 0.869984
3 *140:4 *140:5 1.4
4 *140:3 *140:4 0.86998
5 *140:2 *140:3 1.4
6 *140:1 *140:2 0.994267
7 *857:Y *140:1 1.4
*END

*D_NET *141 0.00038036

*CONN
*I *856:Y O *C 42.775 32.045 *L 0 *D MXI2XL
*I *772:A0 I *C 45.095 32.625 *L 0.00265 *D OAI22X1

*CAP
1 *141:1 1.72576e-05
2 *141:2 1.72576e-05
3 *141:3 0.000138407
4 *141:5 0.000138407
5 *141:6 3.45151e-05
6 *141:7 3.45151e-05

*RES
1 *141:7 *772:A0 1.4
2 *141:6 *141:7 0.248567
3 *141:5 *141:6 1.4
4 *141:3 *141:5 0.994263
5 *141:2 *856:Y 1.4
6 *141:1 *141:3 1.4
7 *141:1 *141:2 0.124283
8 *141:0 *141:1 0.0878571
*END

*D_NET *142 0.000890374

*CONN
*I *855:Y O *C 65.105 37.265 *L 0 *D MXI2XL
*I *790:A I *C 67.425 32.335 *L 0.00162 *D NOR2XL

*CAP
1 *142:1 1.73691e-05
2 *142:2 1.73691e-05
3 *142:3 6.62712e-05
4 *142:5 6.62712e-05
5 *142:6 0.000277906
6 *142:7 0.000277906
7 *142:8 6.62712e-05
8 *142:9 6.62712e-05
9 *142:10 1.73691e-05
10 *142:12 1.73691e-05

*RES
1 *142:12 *790:A 1.4
2 *142:10 *142:12 0.124283
3 *142:10 *142:11 0.212143
4 *142:9 *142:10 1.4
5 *142:8 *142:9 0.497132
6 *142:7 *142:8 1.4
7 *142:6 *142:7 1.98853
8 *142:5 *142:6 1.4
9 *142:3 *142:5 0.497132
10 *142:2 *855:Y 1.4
11 *142:1 *142:3 1.4
12 *142:1 *142:2 0.124283
13 *142:0 *142:1 0.0878571
*END

*D_NET *143 0.00084602

*CONN
*I *854:Y O *C 63.365 41.035 *L 0 *D MXI2XL
*I *794:A I *C 67.425 40.455 *L 0.00157 *D NAND2XL

*CAP
1 *143:1 8.68457e-05
2 *143:2 8.68457e-05
3 *143:3 0.000231949
4 *143:4 0.000231949
5 *143:5 0.000104215
6 *143:6 0.000104215

*RES
1 *143:6 *794:A 1.4
2 *143:5 *143:6 0.745697
3 *143:4 *143:5 1.4
4 *143:3 *143:4 1.73996
5 *143:2 *143:3 1.4
6 *143:1 *143:2 0.621415
7 *854:Y *143:1 1.4
*END

*D_NET *144 0.00168723

*CONN
*I *853:Y O *C 60.465 37.265 *L 0 *D MXI2XL
*I *785:A I *C 69.455 43.065 *L 0.00157 *D NAND2XL

*CAP
1 *144:1 0.000225799
2 *144:2 0.000225799
3 *144:3 0.000513602
4 *144:4 0.000513602
5 *144:5 0.000104215
6 *144:6 0.000104215

*RES
1 *144:6 *785:A 1.4
2 *144:5 *144:6 0.745697
3 *144:4 *144:5 1.4
4 *144:3 *144:4 3.85277
5 *144:2 *144:3 1.4
6 *144:1 *144:2 1.61568
7 *853:Y *144:1 1.4
*END

*D_NET *145 0.000825251

*CONN
*I *852:Y O *C 49.445 30.595 *L 0 *D MXI2XL
*I *792:A I *C 53.215 27.115 *L 0.00162 *D NOR2XL

*CAP
1 *145:0 0.000120803
2 *145:1 0.000120803
3 *145:2 0.000205778
4 *145:4 0.000205778
5 *145:5 6.94766e-05
6 *145:6 6.94766e-05
7 *145:7 1.65678e-05
8 *792:A 1.65678e-05

*RES
1 *145:7 *792:A 0.124283
2 *145:6 *145:7 1.4
3 *145:5 *145:6 0.497132
4 *145:4 *145:5 1.4
5 *145:2 *145:4 1.4914
6 *145:1 *852:Y 1.4
7 *145:0 *145:2 1.4
8 *145:0 *145:1 0.869984
*END

*D_NET *146 0.00100345

*CONN
*I *791:A I *C 41.325 32.335 *L 0.00162 *D NOR2XL
*I *851:Y O *C 49.735 32.045 *L 0 *D MXI2XL

*CAP
1 *146:2 0.000501727
2 *146:4 0.000501727

*RES
1 *146:5 *146:7 0.220714
2 *146:5 *851:Y 1.4
3 *146:4 *146:5 1.4
4 *146:2 *146:4 3.6042
5 *146:1 *791:A 1.4
6 *146:1 *146:2 1.4
7 *146:0 *146:1 0.220714
*END

*D_NET *147 0.000880462

*CONN
*I *850:Y O *C 51.765 30.595 *L 0 *D MXI2XL
*I *789:A I *C 56.115 27.115 *L 0.00162 *D NOR2XL

*CAP
1 *147:0 6.90303e-05
2 *147:1 6.90303e-05
3 *147:2 0.000216481
4 *147:4 0.000216481
5 *147:5 0.000121584
6 *147:6 0.000121584
7 *147:7 3.31356e-05
8 *789:A 3.31356e-05

*RES
1 *147:7 *789:A 0.248566
2 *147:6 *147:7 1.4
3 *147:5 *147:6 0.86998
4 *147:4 *147:5 1.4
5 *147:2 *147:4 1.61568
6 *147:1 *850:Y 1.4
7 *147:0 *147:2 1.4
8 *147:0 *147:1 0.497134
*END

*D_NET *148 0.00112393

*CONN
*I *788:A I *C 65.395 27.115 *L 0.00162 *D NOR2XL
*I *849:Y O *C 61.625 32.045 *L 0 *D MXI2XL

*CAP
1 *148:0 0.000231949
2 *148:1 0.000225799
3 *788:A 0.000231949
4 *148:3 0.000243168
5 *148:4 0.000104215
6 *148:5 8.68457e-05

*RES
1 *148:5 *849:Y 1.4
2 *148:4 *148:5 0.621415
3 *148:3 *148:4 0.124283
4 *148:1 *148:3 1.61568
5 *148:0 *788:A 1.73996
6 *148:0 *148:1 1.4
*END

*D_NET *149 0.000696592

*CONN
*I *848:Y O *C 32.335 25.375 *L 0 *D AOI22X1
*I *755:A0 I *C 31.175 19.575 *L 0.00265 *D OAI22X1

*CAP
1 *149:3 6.92962e-05
2 *149:4 6.92962e-05
3 *149:5 0.000279
4 *149:6 0.000279

*RES
1 *149:6 *755:A0 1.4
2 *149:5 *149:6 2.2371
3 *149:4 *149:5 1.4
4 *149:3 *149:4 0.497132
5 *149:1 *149:3 1.4
6 *149:1 *848:Y 1.4
7 *149:0 *149:1 0.220714
*END

*D_NET *150 0.00140147

*CONN
*I *847:Y O *C 59.305 30.595 *L 0 *D MXI2XL
*I *793:A I *C 66.265 25.085 *L 0.00162 *D NOR2XL

*CAP
1 *150:0 6.94766e-05
2 *150:1 5.21074e-05
3 *150:2 6.94766e-05
4 *150:4 0.000121584
5 *150:5 0.000225279
6 *150:6 0.000155802
7 *150:7 0.000304885
8 *150:8 0.000304885
9 *150:9 4.89854e-05
10 *150:10 4.89854e-05

*RES
1 *150:10 *793:A 1.4
2 *150:9 *150:10 0.372866
3 *150:8 *150:9 1.4
4 *150:7 *150:8 2.36138
5 *150:6 *150:7 1.4
6 *150:5 *150:6 1.11855
7 *150:4 *150:5 0.497132
8 *150:2 *150:4 0.372849
9 *150:1 *847:Y 1.4
10 *150:0 *150:2 0.124283
11 *150:0 *150:1 0.372849
*END

*D_NET *151 0.000951888

*CONN
*I *763:B1 I *C 40.165 16.675 *L 0.00283 *D AOI22X1
*I *846:Y O *C 41.6975 14.645 *L 0 *D CLKINVX1
*I *765:B0 I *C 43.065 16.675 *L 0.00165 *D AO22X1
*I *745:A0 I *C 44.515 16.675 *L 0.00271 *D OAI21X1

*CAP
1 *151:1 1.55e-05
2 *151:2 4.64999e-05
3 *151:3 7.74999e-05
4 *151:4 6.19999e-05
5 *151:5 3.1e-05
6 *151:6 7.74999e-05
7 *151:7 6.19999e-05
8 *846:Y 8.66203e-05
9 *151:9 8.66203e-05
10 *151:10 0.000124
11 *151:11 0.000186
12 *151:12 6.19999e-05
13 *151:14 1.73241e-05
14 *745:A0 1.73241e-05

*RES
1 *151:14 *745:A0 0.124283
2 *151:12 *151:14 1.4
3 *151:11 *765:B0 1.4
4 *151:11 *151:12 0.497134
5 *151:10 *151:11 0.994267
6 *151:9 *151:10 1.4
7 *846:Y *151:9 0.621415
8 *151:7 *846:Y 1.4
9 *151:6 *151:7 0.497134
10 *151:5 *151:6 0.124283
11 *151:4 *151:5 0.124283
12 *151:3 *151:4 0.37285
13 *151:2 *151:3 0.248567
14 *151:1 *151:2 0.124283
15 *763:B1 *151:1 1.4
*END

*D_NET *152 0.00644953

*CONN
*I *874:Y O *C 16.675 30.015 *L 0 *D MX2X1
*I *799:B I *C 14.935 27.405 *L 0.00171 *D NOR2XL
*I *804:B I *C 14.065 22.185 *L 0.00167 *D NAND2XL
*I *768:B1 I *C 13.775 19.575 *L 0.00282 *D OAI22X1
*I *747:B0 I *C 16.385 16.675 *L 0.00262 *D OAI22X1
*I *756:B1 I *C 19.865 16.965 *L 0.00282 *D OAI22X1
*I *766:B1 I *C 26.825 19.575 *L 0.00282 *D OAI22X1
*I *773:B1 I *C 32.625 14.355 *L 0.00282 *D OAI22X1
*I *778:B1 I *C 38.135 14.355 *L 0.00282 *D OAI22X1
*I *846:A I *C 41.325 14.645 *L 0.00273 *D CLKINVX1

*CAP
1 *152:3 4.77236e-05
2 *152:4 0.000127263
3 *152:5 7.95393e-05
4 *152:6 1.68584e-05
5 *152:7 0.000118009
6 *152:8 0.000310309
7 *152:9 0.000209159
8 *152:11 4.56028e-05
9 *152:12 4.56028e-05
10 *152:13 7.84092e-05
11 *152:14 9.4091e-05
12 *152:15 0.0001725
13 *152:17 0.000313637
14 *152:18 0.000156818
15 *152:20 0.000136809
16 *152:21 0.000258416
17 *152:22 0.000152009
18 *152:23 3.13637e-05
19 *152:24 9.12057e-05
20 *152:25 3.13637e-05
21 *152:26 0.00031922
22 *152:28 0.000258416
23 *152:29 7.84092e-05
24 *152:30 0.000188182
25 *152:31 7.84092e-05
26 *152:32 0.000188182
27 *152:34 0.000111714
28 *152:35 0.000111714
29 *152:36 0.000279
30 *152:38 0.000279
31 *152:41 5.19722e-05
32 *152:42 6.92962e-05
33 *152:43 0.000259861
34 *152:44 0.000259861
35 *152:45 6.92962e-05
36 *152:46 0.000103944
37 *152:47 8.66203e-05
38 *152:49 0.000242537
39 *152:52 0.000242537
40 *152:53 0.000103944
41 *152:54 8.66203e-05
42 *152:55 0.000155917
43 *152:56 0.000155917
44 *152:57 1.55e-05
45 *152:58 6.92962e-05
46 *152:59 1.55e-05
47 *152:60 5.19722e-05

*RES
1 *152:63 *846:A 1.4
2 *152:63 *152:64 0.220714
3 *152:60 *152:63 1.4
4 *152:59 *778:B1 1.4
5 *152:59 *152:61 0.0878571
6 *152:58 *152:60 0.372849
7 *152:57 *152:59 0.124283
8 *152:56 *152:58 0.124283
9 *152:55 *152:57 1.4
10 *152:55 *152:56 0.994263
11 *152:54 *152:55 0.124283
12 *152:53 *152:54 0.497132
13 *152:52 *152:53 0.248566
14 *152:49 *152:52 1.49139
15 *152:48 *773:B1 1.4
16 *152:48 *152:50 0.220714
17 *152:47 *152:49 0.248566
18 *152:46 *152:48 1.4
19 *152:46 *152:47 0.372849
20 *152:45 *152:46 0.372849
21 *152:44 *152:45 0.124283
22 *152:43 *152:44 1.73996
23 *152:42 *152:43 0.124283
24 *152:41 *152:42 0.372849
25 *152:38 *152:41 1.4
26 *152:37 *766:B1 1.4
27 *152:37 *152:39 0.220714
28 *152:36 *152:38 2.2371
29 *152:35 *152:37 1.4
30 *152:35 *152:36 1.4
31 *152:34 *152:35 0.870007
32 *152:32 *152:34 1.4
33 *152:31 *756:B1 1.4
34 *152:30 *152:32 1.49147
35 *152:29 *152:31 0.621444
36 *152:28 *152:30 1.4
37 *152:26 *152:29 1.4
38 *152:26 *152:28 2.11291
39 *152:25 *747:B0 1.4
40 *152:24 *152:26 0.497155
41 *152:23 *152:25 0.248578
42 *152:22 *152:24 0.248578
43 *152:21 *152:23 1.4
44 *152:21 *152:22 0.99431
45 *152:20 *152:21 1.1186
46 *152:18 *152:20 1.4
47 *152:17 *768:B1 1.4
48 *152:17 *152:18 1.24289
49 *152:15 *152:17 1.24289
50 *152:14 *804:B 1.4
51 *152:14 *152:15 0.124289
52 *152:13 *152:14 0.621444
53 *152:12 *152:13 1.4
54 *152:11 *152:12 0.372866
55 *152:9 *152:11 1.4
56 *152:8 *799:B 1.4
57 *152:8 *152:9 1.61575
58 *152:7 *152:8 0.745732
59 *152:6 *152:7 0.124289
60 *152:5 *152:6 1.4
61 *152:4 *152:5 0.621444
62 *152:3 *152:4 0.372866
63 *152:1 *152:3 1.4
64 *152:1 *874:Y 1.4
65 *152:0 *152:1 0.03
*END

*D_NET *153 0.000966944

*CONN
*I *845:A I *C 27.695 30.305 *L 0.00273 *D INVX1
*I *760:A0 I *C 28.275 32.625 *L 0.00265 *D OAI22X1
*I *873:Y O *C 30.015 35.815 *L 0 *D MXI2XL

*CAP
1 *153:0 1.73009e-05
2 *153:1 0.000103545
3 *845:A 1.73009e-05
4 *153:3 0.000138061
5 *153:4 6.90303e-05
6 *153:5 5.17727e-05
7 *153:6 0.000120803
8 *153:7 0.000120803
9 *153:9 1.72576e-05
10 *153:10 8.65046e-05
11 *153:11 8.65046e-05
12 *153:12 6.90303e-05
13 *153:13 6.90303e-05

*RES
1 *153:13 *873:Y 1.4
2 *153:12 *153:13 0.497134
3 *153:11 *153:12 1.4
4 *153:10 *153:11 0.621415
5 *153:9 *153:10 1.4
6 *153:7 *153:9 0.124283
7 *153:6 *760:A0 1.4
8 *153:6 *153:7 0.7457
9 *153:5 *153:6 0.124283
10 *153:4 *153:5 0.248567
11 *153:3 *153:4 0.248567
12 *153:1 *153:3 0.7457
13 *153:0 *845:A 0.124283
14 *153:0 *153:1 1.4
*END

*D_NET *154 0.000449217

*CONN
*I *748:B1 I *C 26.245 32.335 *L 0.00283 *D AOI22X1
*I *845:Y O *C 28.0675 30.305 *L 0 *D INVX1

*CAP
1 *154:0 6.90303e-05
2 *154:1 0.000103806
3 *154:2 6.90303e-05
4 *154:3 0.000103806
5 *154:5 5.17727e-05
6 *154:6 5.17727e-05

*RES
1 *154:6 *845:Y 1.4
2 *154:5 *154:6 0.37285
3 *154:3 *154:5 1.4
4 *154:2 *748:B1 1.4
5 *154:1 *154:3 0.745697
6 *154:0 *154:2 0.497134
7 *154:0 *154:1 1.4
*END

*D_NET *155 0.00117072

*CONN
*I *778:A0 I *C 37.265 14.355 *L 0.00265 *D OAI22X1
*I *773:B0 I *C 32.915 14.645 *L 0.00262 *D OAI22X1
*I *872:Y O *C 33.495 20.155 *L 0 *D MXI2XL

*CAP
1 *155:2 0.000259861
2 *155:4 0.000259861
3 *155:5 0.000248
4 *155:6 0.000279
5 *155:8 7.74999e-05
6 *155:9 4.64999e-05

*RES
1 *155:9 *872:Y 1.4
2 *155:8 *155:9 0.37285
3 *155:6 *155:8 0.248567
4 *155:5 *773:B0 1.4
5 *155:5 *155:6 1.98853
6 *155:4 *155:5 1.4
7 *155:2 *155:4 1.86424
8 *155:1 *778:A0 1.4
9 *155:1 *155:2 1.4
10 *155:0 *155:1 0.220714
*END

*D_NET *156 0.00126571

*CONN
*I *756:B0 I *C 20.155 16.675 *L 0.00262 *D OAI22X1
*I *871:Y O *C 21.605 20.155 *L 0 *D MXI2XL
*I *766:A0 I *C 25.955 19.575 *L 0.00265 *D OAI22X1

*CAP
1 *756:B0 7.60047e-05
2 *156:1 9.12057e-05
3 *156:2 1.52009e-05
4 *156:3 0.000141136
5 *156:4 0.000219546
6 *156:6 7.84092e-05
7 *156:7 0.000228014
8 *156:8 0.000228014
9 *156:9 9.4091e-05
10 *156:10 9.4091e-05

*RES
1 *156:10 *766:A0 1.4
2 *156:9 *156:10 0.745733
3 *156:8 *156:9 1.4
4 *156:7 *156:8 1.86433
5 *156:6 *156:7 1.4
6 *156:4 *156:6 0.621444
7 *156:4 *871:Y 1.4
8 *156:3 *156:4 1.1186
9 *156:2 *156:3 1.4
10 *156:1 *156:2 0.124289
11 *756:B0 *156:1 0.621444
*END

*D_NET *157 0.000661944

*CONN
*I *870:Y O *C 32.045 21.605 *L 0 *D MXI2XL
*I *755:B0 I *C 32.335 19.865 *L 0.00262 *D OAI22X1
*I *777:A0 I *C 33.205 16.965 *L 0.00265 *D OAI22X1

*CAP
1 *157:0 0.0001085
2 *157:1 9.29999e-05
3 *157:2 4.64999e-05
4 *157:4 0.000124
5 *157:5 9.29999e-05
6 *157:7 5.19722e-05
7 *157:8 5.19722e-05
8 *157:9 4.64999e-05
9 *157:10 4.64999e-05

*RES
1 *157:10 *777:A0 1.4
2 *157:9 *157:10 0.37285
3 *157:8 *157:9 1.4
4 *157:7 *157:8 0.372849
5 *157:5 *157:7 1.4
6 *157:4 *755:B0 1.4
7 *157:4 *157:5 0.7457
8 *157:2 *157:4 0.248567
9 *157:1 *870:Y 1.4
10 *157:0 *157:2 0.124283
11 *157:0 *157:1 0.7457
*END

*D_NET *158 0.0012057

*CONN
*I *844:A I *C 13.195 32.335 *L 0.00273 *D INVX1
*I *869:Y O *C 17.255 30.595 *L 0 *D MXI2XL
*I *757:B1 I *C 19.865 32.625 *L 0.00282 *D OAI22X1

*CAP
1 *158:0 6.74337e-05
2 *158:1 5.05753e-05
3 *158:2 5.05753e-05
4 *158:3 3.37169e-05
5 *158:5 0.000206802
6 *158:6 0.000349973
7 *158:7 3.37169e-05
8 *158:8 0.000143171
9 *158:9 3.37169e-05
10 *158:10 0.000118009
11 *158:12 0.000118009

*RES
1 *158:12 *757:B1 1.4
2 *158:10 *158:12 0.870021
3 *158:9 *869:Y 1.4
4 *158:8 *158:10 1.4
5 *158:7 *158:9 0.248578
6 *158:6 *158:8 1.1186
7 *158:6 *158:7 1.4
8 *158:5 *158:6 1.61575
9 *158:3 *158:5 1.4
10 *158:2 *844:A 1.4
11 *158:1 *158:3 0.248578
12 *158:0 *158:2 0.372866
13 *158:0 *158:1 0.124289
*END

*D_NET *159 0.000349973

*CONN
*I *844:Y O *C 13.5675 32.335 *L 0 *D INVX1
*I *749:A0 I *C 16.675 32.625 *L 0.00264 *D AOI22X1

*CAP
1 *159:3 0.000143171
2 *159:4 0.000143171
3 *159:7 3.18157e-05
4 *749:A0 3.18157e-05

*RES
1 *159:7 *749:A0 0.248578
2 *159:5 *159:7 1.4
3 *159:5 *159:6 0.220714
4 *159:4 *159:5 1.4
5 *159:3 *159:4 1.1186
6 *159:1 *159:3 1.4
7 *159:1 *844:Y 1.4
8 *159:0 *159:1 0.220714
*END

*D_NET *160 0.000686154

*CONN
*I *768:B0 I *C 14.065 19.865 *L 0.00262 *D OAI22X1
*I *747:A0 I *C 15.225 16.965 *L 0.00265 *D OAI22X1
*I *868:Y O *C 14.935 21.605 *L 0 *D MXI2XL

*CAP
1 *768:B0 6.08038e-05
2 *160:1 6.08038e-05
3 *160:2 0.0001725
4 *160:3 4.70455e-05
5 *160:4 0.000141136
6 *160:5 0.000109773
7 *160:7 9.4091e-05

*RES
1 *160:7 *868:Y 1.4
2 *160:5 *160:7 0.745733
3 *160:4 *747:A0 1.4
4 *160:3 *160:5 0.124289
5 *160:2 *160:4 1.1186
6 *160:2 *160:3 0.248578
7 *160:1 *160:2 1.4
8 *768:B0 *160:1 0.497155
*END

*D_NET *161 0.00103942

*CONN
*I *843:A I *C 35.525 16.675 *L 0.00273 *D INVX1
*I *763:A0 I *C 39.295 16.965 *L 0.00264 *D AOI22X1
*I *867:Y O *C 36.685 21.605 *L 0 *D MXI2XL

*CAP
1 *161:2 5.19722e-05
2 *161:4 0.000190565
3 *161:5 4.64999e-05
4 *161:6 0.000138592
5 *161:7 6.19999e-05
6 *161:9 0.000248
7 *161:11 3.46481e-05
8 *161:12 0.0002325
9 *763:A0 3.46481e-05

*RES
1 *161:12 *867:Y 1.4
2 *161:11 *763:A0 0.248566
3 *161:9 *161:12 1.86425
4 *161:8 *161:11 1.4
5 *161:8 *161:10 0.220714
6 *161:7 *161:9 0.124283
7 *161:6 *161:8 1.4
8 *161:5 *161:7 0.37285
9 *161:4 *161:6 0.994263
10 *161:4 *161:5 1.4
11 *161:2 *161:4 0.372849
12 *161:1 *843:A 1.4
13 *161:1 *161:2 1.4
14 *161:0 *161:1 0.220714
*END

*D_NET *162 0.000556185

*CONN
*I *843:Y O *C 35.8975 16.675 *L 0 *D INVX1
*I *778:B0 I *C 38.425 14.645 *L 0.00262 *D OAI22X1

*CAP
1 *162:0 9.29999e-05
2 *162:1 7.74999e-05
3 *162:2 1.55e-05
4 *162:4 0.000138592
5 *162:5 0.000138592
6 *162:6 4.64999e-05
7 *162:7 4.64999e-05

*RES
1 *162:7 *778:B0 1.4
2 *162:6 *162:7 0.37285
3 *162:5 *162:6 1.4
4 *162:4 *162:5 0.994263
5 *162:2 *162:4 1.4
6 *162:1 *843:Y 1.4
7 *162:0 *162:2 0.124283
8 *162:0 *162:1 0.621417
*END

*D_NET *163 0.00135307

*CONN
*I *766:B0 I *C 27.115 19.865 *L 0.00262 *D OAI22X1
*I *866:Y O *C 28.855 20.155 *L 0 *D MXI2XL
*I *773:A0 I *C 31.755 14.355 *L 0.00265 *D OAI22X1

*CAP
1 *766:B0 5.19722e-05
2 *163:1 5.19722e-05
3 *163:2 0.0001085
4 *163:3 9.29999e-05
5 *163:4 6.19999e-05
6 *163:5 7.74999e-05
7 *163:6 0.000190565
8 *163:7 3.1e-05
9 *163:8 0.000190565
10 *163:10 0.000217
11 *163:11 0.000248
12 *163:12 3.1e-05

*RES
1 *163:12 *773:A0 1.4
2 *163:11 *163:12 0.248567
3 *163:10 *163:11 1.73997
4 *163:8 *163:10 1.4
5 *163:7 *866:Y 1.4
6 *163:6 *163:8 1.36711
7 *163:5 *163:7 0.248567
8 *163:4 *163:6 1.4
9 *163:3 *163:5 0.37285
10 *163:2 *163:4 0.497134
11 *163:2 *163:3 0.37285
12 *163:1 *163:2 1.4
13 *766:B0 *163:1 0.372849
*END

*D_NET *164 0.00162577

*CONN
*I *771:B0 I *C 58.145 30.305 *L 0.00262 *D OAI22X1
*I *865:Y O *C 59.885 35.815 *L 0 *D MXI2XL
*I *779:A0 I *C 65.105 32.625 *L 0.00265 *D OAI22X1

*CAP
1 *164:1 0.000173691
2 *164:2 0.000173691
3 *164:3 9.94068e-05
4 *164:4 9.94068e-05
5 *164:5 3.47383e-05
6 *164:6 0.000156322
7 *164:7 0.000121584
8 *164:8 4.97034e-05
9 *164:10 6.62712e-05
10 *164:11 0.000215381
11 *164:12 0.000215381
12 *164:13 6.62712e-05
13 *164:14 4.97034e-05
14 *164:15 5.21074e-05
15 *164:16 5.21074e-05

*RES
1 *164:16 *779:A0 1.4
2 *164:15 *164:16 0.372849
3 *164:14 *164:15 1.4
4 *164:13 *164:14 0.372849
5 *164:12 *164:13 0.124283
6 *164:11 *164:12 1.4914
7 *164:10 *164:11 0.124283
8 *164:8 *164:10 0.372849
9 *164:7 *865:Y 1.4
10 *164:6 *164:8 1.4
11 *164:6 *164:7 0.86998
12 *164:5 *164:6 0.248566
13 *164:4 *164:5 1.4
14 *164:3 *164:4 0.745698
15 *164:2 *164:3 1.4
16 *164:1 *164:2 1.24283
17 *771:B0 *164:1 1.4
*END

*D_NET *165 0.000564908

*CONN
*I *864:Y O *C 64.525 35.815 *L 0 *D MXI2XL
*I *759:B0 I *C 68.005 35.525 *L 0.00262 *D OAI22X1
*I *775:A0 I *C 69.165 35.525 *L 0.00271 *D OAI21X1

*CAP
1 *165:3 0.000198814
2 *165:4 0.000198814
3 *165:5 1.73691e-05
4 *165:7 1.73691e-05
5 *759:B0 6.62712e-05
6 *775:A0 6.62712e-05

*RES
1 *759:B0 *775:A0 0.497132
2 *165:7 *759:B0 1.4
3 *165:5 *165:7 0.124283
4 *165:5 *165:6 0.212143
5 *165:4 *165:5 1.4
6 *165:3 *165:4 1.4914
7 *165:1 *165:3 1.4
8 *165:1 *864:Y 1.4
9 *165:0 *165:1 0.220714
*END

*D_NET *166 0.00108117

*CONN
*I *863:Y O *C 62.205 35.815 *L 0 *D MXI2XL
*I *759:A0 I *C 66.845 35.235 *L 0.00265 *D OAI22X1
*I *779:B0 I *C 66.265 32.335 *L 0.00262 *D OAI22X1

*CAP
1 *166:1 1.73691e-05
2 *166:2 6.94766e-05
3 *166:3 5.21074e-05
4 *166:4 4.97034e-05
5 *166:5 6.62712e-05
6 *166:6 0.000165678
7 *166:7 0.000165678
8 *166:8 6.62712e-05
9 *166:9 4.97034e-05
10 *166:10 0.000156322
11 *166:11 3.47383e-05
12 *166:12 0.000121584
13 *166:14 3.31356e-05
14 *779:B0 3.31356e-05

*RES
1 *166:14 *779:B0 0.248566
2 *166:12 *166:14 1.4
3 *166:11 *759:A0 1.4
4 *166:10 *166:12 0.86998
5 *166:10 *166:11 0.248566
6 *166:9 *166:10 1.4
7 *166:8 *166:9 0.372849
8 *166:7 *166:8 0.124283
9 *166:6 *166:7 1.11855
10 *166:5 *166:6 0.124283
11 *166:4 *166:5 0.372849
12 *166:3 *166:4 1.4
13 *166:2 *166:3 0.372849
14 *166:1 *166:2 0.124283
15 *863:Y *166:1 1.4
*END

*D_NET *167 0.00138156

*CONN
*I *862:Y O *C 47.125 37.265 *L 0 *D MXI2XL
*I *764:B0 I *C 48.575 32.335 *L 0.00262 *D OAI22X1
*I *754:A0 I *C 52.055 32.625 *L 0.00265 *D OAI22X1

*CAP
1 *167:0 0.000155318
2 *167:1 8.62879e-05
3 *167:2 0.000172576
4 *167:4 0.000120803
5 *167:5 0.000120803
6 *167:6 0.000155318
7 *167:7 6.90303e-05
8 *167:9 1.72576e-05
9 *167:10 0.00019031
10 *167:11 0.00019031
11 *167:12 5.17727e-05
12 *167:13 5.17727e-05

*RES
1 *167:13 *754:A0 1.4
2 *167:12 *167:13 0.37285
3 *167:11 *167:12 1.4
4 *167:10 *167:11 1.36711
5 *167:9 *167:10 1.4
6 *167:7 *167:9 0.124283
7 *167:6 *764:B0 1.4
8 *167:6 *167:7 0.37285
9 *167:5 *167:6 0.7457
10 *167:4 *167:5 0.124283
11 *167:2 *167:4 0.7457
12 *167:1 *862:Y 1.4
13 *167:0 *167:2 0.497134
14 *167:0 *167:1 0.621417
*END

*D_NET *168 0.00114264

*CONN
*I *807:A I *C 67.135 37.845 *L 0.00157 *D NAND2XL
*I *746:B0 I *C 69.745 40.745 *L 0.0028 *D OAI21X1
*I *861:Y O *C 62.785 37.265 *L 0 *D MXI2XL

*CAP
1 *168:2 0.000248517
2 *168:4 0.00014911
3 *168:5 0.000115975
4 *168:6 0.000156322
5 *168:7 0.00014911
6 *168:8 0.000156322
7 *168:9 0.000132542
8 *168:11 1.73691e-05
9 *168:12 1.73691e-05

*RES
1 *168:12 *861:Y 1.4
2 *168:11 *168:12 0.124283
3 *168:9 *168:11 1.4
4 *168:8 *746:B0 1.4
5 *168:7 *168:9 0.994264
6 *168:6 *168:8 1.11855
7 *168:5 *168:7 0.124283
8 *168:4 *168:6 1.4
9 *168:2 *168:5 0.745698
10 *168:2 *168:4 1.11855
11 *168:1 *807:A 1.4
12 *168:1 *168:2 1.4
13 *168:0 *168:1 0.220714
*END

*D_NET *169 0.000818581

*CONN
*I *754:B0 I *C 53.215 32.335 *L 0.00262 *D OAI22X1
*I *770:A0 I *C 54.375 32.625 *L 0.00265 *D OAI22X1
*I *860:Y O *C 50.315 35.815 *L 0 *D MXI2XL

*CAP
1 *169:2 0.000236715
2 *169:4 6.62712e-05
3 *169:5 0.000170443
4 *169:7 0.000172576
5 *169:10 0.000172576

*RES
1 *169:10 *860:Y 1.4
2 *169:7 *169:10 1.24283
3 *169:6 *770:A0 1.4
4 *169:6 *169:8 0.220714
5 *169:5 *169:7 1.4
6 *169:4 *169:6 1.4
7 *169:2 *169:5 1.24283
8 *169:2 *169:4 0.497132
9 *169:1 *754:B0 1.4
10 *169:1 *169:2 1.4
11 *169:0 *169:1 0.220714
*END

*D_NET *170 0.00092992

*CONN
*I *771:A0 I *C 56.985 30.015 *L 0.00265 *D OAI22X1
*I *770:B0 I *C 55.535 32.335 *L 0.00262 *D OAI22X1
*I *859:Y O *C 54.665 35.815 *L 0 *D MXI2XL

*CAP
1 *170:2 8.2839e-05
2 *170:4 8.2839e-05
3 *170:5 0.000156322
4 *170:6 0.000260537
5 *170:7 0.000156322
6 *170:9 0.000121584
7 *170:10 6.94766e-05

*RES
1 *170:10 *859:Y 1.4
2 *170:9 *170:10 0.497132
3 *170:7 *170:9 0.372849
4 *170:6 *770:B0 1.4
5 *170:6 *170:7 0.745697
6 *170:5 *170:6 1.11855
7 *170:4 *170:5 1.4
8 *170:2 *170:4 0.621415
9 *170:1 *771:A0 1.4
10 *170:1 *170:2 1.4
11 *170:0 *170:1 0.220714
*END

*D_NET *171 0.000552416

*CONN
*I *772:B0 I *C 46.255 32.335 *L 0.00262 *D OAI22X1
*I *764:A0 I *C 47.415 32.625 *L 0.00265 *D OAI22X1
*I *858:Y O *C 47.995 35.815 *L 0 *D MXI2XL

*CAP
1 *772:B0 3.46019e-05
2 *171:1 3.46019e-05
3 *171:2 3.45151e-05
4 *171:3 0.000120803
5 *171:4 0.000120803
6 *171:6 0.000120803
7 *171:7 8.62879e-05

*RES
1 *171:7 *858:Y 1.4
2 *171:6 *171:7 0.621417
3 *171:4 *171:6 0.248567
4 *171:3 *764:A0 1.4
5 *171:3 *171:4 0.621417
6 *171:2 *171:3 0.248567
7 *171:1 *171:2 1.4
8 *772:B0 *171:1 0.248566
*END

*D_NET *172 0.000627273

*CONN
*I *768:A0 I *C 12.905 19.575 *L 0.00265 *D OAI22X1
*I *822:Y O *C 13.195 25.375 *L 0 *D MXI2XL

*CAP
1 *172:1 0.0001725
2 *172:2 0.000188182
3 *172:3 0.000141136
4 *172:4 0.000125455

*RES
1 *172:4 *822:Y 1.4
2 *172:3 *172:4 0.99431
3 *172:2 *172:3 0.124289
4 *172:1 *172:2 1.36718
5 *768:A0 *172:1 1.4
*END

*D_NET *173 0.00052645

*CONN
*I *804:A I *C 13.485 22.185 *L 0.00157 *D NAND2XL
*I *821:Y O *C 15.515 25.375 *L 0 *D MXI2XL

*CAP
1 *173:1 6.27273e-05
2 *173:2 6.27273e-05
3 *173:3 0.000106407
4 *173:4 0.000106407
5 *173:5 9.4091e-05
6 *173:6 9.4091e-05

*RES
1 *173:6 *821:Y 1.4
2 *173:5 *173:6 0.745733
3 *173:4 *173:5 1.4
4 *173:3 *173:4 0.870021
5 *173:2 *173:3 1.4
6 *173:1 *173:2 0.497155
7 *804:A *173:1 1.4
*END

*D_NET *174 0.000269735

*CONN
*I *782:A1 I *C 13.485 27.405 *L 0.00274 *D OAI21X1
*I *820:Y O *C 13.305 30.67 *L 0 *D AOI21XL

*CAP
1 *174:1 0.000134867
2 *174:2 0.000134867

*RES
1 *174:2 *820:Y 1.4
2 *174:1 *174:2 0.99431
3 *782:A1 *174:1 1.4
*END

*D_NET *175 0.000709266

*CONN
*I *806:A I *C 34.075 24.795 *L 0.00157 *D NAND2XL
*I *819:Y O *C 33.495 30.595 *L 0 *D MXI2XL

*CAP
1 *175:0 3.46481e-05
2 *175:1 0.000319985
3 *806:A 3.46481e-05
4 *175:3 0.000319985

*RES
1 *175:3 *819:Y 1.4
2 *175:1 *175:3 2.36138
3 *175:0 *806:A 0.248566
4 *175:0 *175:1 1.4
*END

*D_NET *176 0.000966597

*CONN
*I *783:A1 I *C 30.015 30.015 *L 0.00274 *D OAI21X1
*I *818:Y O *C 30.415 37.19 *L 0 *D AOI21XL

*CAP
1 *176:2 5.17727e-05
2 *176:3 6.90303e-05
3 *176:4 0.000172576
4 *176:5 6.90303e-05
5 *176:6 0.000327894
6 *176:8 0.000207091
7 *176:9 3.46019e-05
8 *176:10 3.46019e-05

*RES
1 *176:11 *176:13 0.220714
2 *176:11 *818:Y 1.4
3 *176:10 *176:11 1.4
4 *176:9 *176:10 0.248566
5 *176:8 *176:9 1.4
6 *176:6 *176:8 1.4914
7 *176:5 *783:A1 1.4
8 *176:4 *176:6 0.869984
9 *176:3 *176:5 0.497134
10 *176:2 *176:4 0.37285
11 *176:1 *176:3 1.4
12 *176:1 *176:2 1.4
13 *176:0 *176:1 0.220714
*END

*D_NET *177 0.000414529

*CONN
*I *784:A1 I *C 41.615 35.235 *L 0.00274 *D OAI21X1
*I *817:Y O *C 42.595 37.19 *L 0 *D AOI21XL

*CAP
1 *177:2 6.92037e-05
2 *177:4 6.92037e-05
3 *177:5 0.000138061
4 *177:6 0.000138061

*RES
1 *177:6 *817:Y 1.4
2 *177:5 *177:6 0.994267
3 *177:4 *177:5 1.4
4 *177:2 *177:4 0.497132
5 *177:1 *784:A1 1.4
6 *177:1 *177:2 1.4
7 *177:0 *177:1 0.220714
*END

*D_NET *178 0.00116325

*CONN
*I *816:Y O *C 59.0975 21.895 *L 0 *D CLKINVX1
*I *808:B I *C 63.945 24.795 *L 0.00167 *D NAND2XL
*I *744:A1 I *C 65.105 24.795 *L 0.00274 *D OAI21X1

*CAP
1 *178:1 9.79709e-05
2 *178:2 9.79709e-05
3 *178:3 0.000272792
4 *178:4 0.000353025
5 *178:5 8.0233e-05
6 *178:6 6.53139e-05
7 *178:7 6.53139e-05
8 *178:8 6.53139e-05
9 *178:9 6.53139e-05

*RES
1 *178:9 *744:A1 1.4
2 *178:8 *808:B 1.4
3 *178:7 *178:9 0.497155
4 *178:6 *178:8 0.497155
5 *178:5 *178:7 1.4
6 *178:4 *178:6 1.4
7 *178:4 *178:5 0.621415
8 *178:3 *178:4 2.11281
9 *178:2 *178:3 1.4
10 *178:1 *178:2 0.745732
11 *816:Y *178:1 1.4
*END

*D_NET *179 0.00763602

*CONN
*I *755:B1 I *C 32.045 19.575 *L 0.00282 *D OAI22X1
*I *777:B1 I *C 34.075 16.965 *L 0.00282 *D OAI22X1
*I *798:B I *C 19.865 19.575 *L 0.00171 *D NOR2XL
*I *767:B1 I *C 37.555 16.965 *L 0.00282 *D OAI22X1
*I *774:B1 I *C 45.095 14.355 *L 0.00282 *D OAI22X1
*I *806:B I *C 34.655 24.795 *L 0.00167 *D NAND2XL
*I *769:B1 I *C 49.445 16.965 *L 0.00282 *D OAI22X1
*I *842:Y O *C 32.625 27.405 *L 0 *D MX2X1
*I *780:B1 I *C 56.985 19.575 *L 0.00282 *D OAI22X1
*I *758:B1 I *C 59.595 19.575 *L 0.00282 *D OAI22X1
*I *816:A I *C 58.725 21.895 *L 0.00273 *D CLKINVX1

*CAP
1 *179:2 0.000311833
2 *179:4 6.92962e-05
3 *179:5 0.000311833
4 *179:6 0.000121268
5 *179:7 0.000439427
6 *179:8 0.000294509
7 *179:9 0.000404779
8 *179:10 0.0003255
9 *179:11 0.000658314
10 *179:12 7.74999e-05
11 *179:13 4.70455e-05
12 *179:14 0.0003255
13 *179:15 0.000710286
14 *179:16 7.74999e-05
15 *179:17 7.74999e-05
16 *179:18 4.70455e-05
17 *179:19 3.46481e-05
18 *179:20 0.000294509
19 *179:21 0.000248
20 *179:22 7.74999e-05
21 *179:25 3.46481e-05
22 *179:26 8.66203e-05
23 *179:27 7.74999e-05
24 *179:28 0.000248
25 *179:30 0.000147409
26 *179:31 8.66203e-05
27 *179:32 7.74999e-05
28 *179:34 0.000147409
29 *179:36 0.000251557
30 *179:38 0.000121107
31 *179:39 0.000232956
32 *842:Y 0.000121107
33 *179:41 0.000112326
34 *179:42 0.000112326
35 *179:43 8.0233e-05
36 *179:44 0.000208606
37 *179:45 0.000144419
38 *179:47 6.53139e-05
39 *179:50 0.000114299
40 *179:52 0.000130628
41 *179:53 8.16424e-05

*RES
1 *179:53 *816:A 1.4
2 *179:52 *179:53 0.621444
3 *179:50 *179:52 0.372866
4 *179:47 *758:B1 1.4
5 *179:47 *179:50 0.497155
6 *179:46 *780:B1 1.4
7 *179:46 *179:48 0.03
8 *179:45 *179:47 1.4
9 *179:44 *179:46 1.4
10 *179:44 *179:45 1.11855
11 *179:43 *179:44 0.497132
12 *179:42 *179:43 0.124283
13 *179:41 *179:42 0.745698
14 *179:39 *179:41 0.124283
15 *179:38 *842:Y 0.86998
16 *179:36 *179:39 1.61568
17 *179:34 *179:38 1.4
18 *179:32 *769:B1 1.4
19 *179:31 *179:36 0.248566
20 *179:30 *806:B 1.4
21 *179:30 *179:34 1.11855
22 *179:28 *774:B1 1.4
23 *179:27 *179:32 0.621417
24 *179:26 *179:31 0.372849
25 *179:25 *179:30 1.4
26 *179:22 *767:B1 1.4
27 *179:21 *179:28 1.98853
28 *179:20 *179:27 1.4
29 *179:20 *179:26 0.248566
30 *179:19 *179:25 0.248566
31 *179:18 *798:B 1.4
32 *179:17 *777:B1 1.4
33 *179:16 *179:22 0.621417
34 *179:15 *179:21 1.4
35 *179:15 *179:20 1.86424
36 *179:14 *179:19 1.4
37 *179:13 *179:18 0.372866
38 *179:12 *179:17 0.621417
39 *179:11 *179:16 1.4
40 *179:11 *179:15 3.23136
41 *179:10 *179:14 2.60995
42 *179:9 *179:13 1.4
43 *179:8 *179:12 1.4
44 *179:8 *179:11 1.49139
45 *179:8 *179:10 1.4
46 *179:7 *179:9 3.23148
47 *179:6 *179:8 0.621415
48 *179:5 *179:7 0.248566
49 *179:4 *179:6 0.248566
50 *179:2 *179:5 1.98853
51 *179:2 *179:4 0.248566
52 *179:1 *755:B1 1.4
53 *179:1 *179:2 1.4
54 *179:0 *179:1 0.220714
*END

*D_NET *180 0.0017412

*CONN
*I *815:Y O *C 64.3175 32.335 *L 0 *D CLKINVX1
*I *807:B I *C 67.715 37.845 *L 0.00167 *D NAND2XL
*I *746:A1 I *C 69.165 40.455 *L 0.00274 *D OAI21X1

*CAP
1 *180:0 0.000156322
2 *180:1 0.000156322
3 *180:2 0.000138953
4 *180:3 0.000138953
5 *180:4 0.000215381
6 *180:6 0.000314788
7 *180:7 9.94068e-05
8 *180:8 5.21074e-05
9 *180:9 0.00020843
10 *180:10 5.21074e-05
11 *180:11 0.00020843

*RES
1 *180:11 *746:A1 1.4
2 *180:10 *807:B 1.4
3 *180:9 *180:11 1.49139
4 *180:8 *180:10 0.372849
5 *180:7 *180:9 1.4
6 *180:6 *180:8 1.4
7 *180:6 *180:7 0.745698
8 *180:4 *180:6 1.61568
9 *180:3 *815:Y 1.4
10 *180:2 *180:4 1.4
11 *180:1 *180:3 0.994263
12 *180:0 *180:2 0.994263
13 *180:0 *180:1 0.124283
*END

*D_NET *181 0.00674402

*CONN
*I *772:B1 I *C 45.965 32.625 *L 0.00282 *D OAI22X1
*I *764:B1 I *C 48.285 32.625 *L 0.00282 *D OAI22X1
*I *754:B1 I *C 52.925 32.625 *L 0.00282 *D OAI22X1
*I *770:B1 I *C 55.245 32.625 *L 0.00282 *D OAI22X1
*I *841:Y O *C 47.415 35.235 *L 0 *D MX2X1
*I *771:B1 I *C 57.855 30.015 *L 0.00282 *D OAI22X1
*I *800:B I *C 35.525 24.795 *L 0.00171 *D NOR2XL
*I *802:B I *C 52.055 37.845 *L 0.00167 *D NAND2XL
*I *779:B1 I *C 65.975 32.625 *L 0.00282 *D OAI22X1
*I *815:A I *C 63.945 32.335 *L 0.00273 *D CLKINVX1
*I *759:B1 I *C 67.715 35.235 *L 0.00282 *D OAI22X1

*CAP
1 *181:2 0.00038062
2 *181:4 0.000155708
3 *181:5 0.000311417
4 *181:6 1.73009e-05
5 *181:7 0.000344186
6 *181:8 0.000258864
7 *181:9 6.90303e-05
8 *181:10 0.000407524
9 *181:12 0.000258864
10 *181:13 8.62879e-05
11 *181:14 0.000281653
12 *181:15 8.68457e-05
13 *181:18 0.000311417
14 *181:19 6.90303e-05
15 *181:20 0.000198814
16 *181:22 0.000104215
17 *181:24 0.000311417
18 *181:25 5.17727e-05
19 *181:26 8.2839e-05
20 *181:27 0.000191061
21 *181:30 0.000260537
22 *181:31 0.000216439
23 *181:33 0.000248517
24 *181:34 0.000191061
25 *181:35 0.000277851
26 *181:36 0.000216439
27 *181:37 0.000248517
28 *181:39 6.91976e-05
29 *181:41 8.2839e-05
30 *181:42 3.45151e-05
31 *181:43 0.000198814
32 *181:45 0.000248517
33 *181:46 3.47383e-05
34 *181:47 0.000165678
35 *181:49 3.47383e-05
36 *181:50 6.62712e-05
37 *181:53 3.31356e-05
38 *181:54 5.21074e-05
39 *815:A 3.31356e-05
40 *181:56 5.21074e-05

*RES
1 *181:56 *759:B1 1.4
2 *181:54 *181:56 0.372849
3 *181:53 *815:A 0.248566
4 *181:50 *181:54 1.4
5 *181:49 *181:53 1.4
6 *181:48 *779:B1 1.4
7 *181:48 *181:51 0.220714
8 *181:47 *181:50 0.497132
9 *181:46 *181:49 0.248566
10 *181:45 *181:48 1.4
11 *181:45 *181:47 0.745698
12 *181:43 *181:46 1.4
13 *181:43 *181:45 1.11855
14 *181:42 *802:B 1.4
15 *181:41 *181:43 0.372849
16 *181:39 *181:42 0.248567
17 *181:37 *181:41 0.248566
18 *181:36 *800:B 1.4
19 *181:35 *181:39 0.248566
20 *181:34 *771:B1 1.4
21 *181:33 *181:37 1.61568
22 *181:31 *181:36 1.61568
23 *181:30 *181:35 1.73996
24 *181:27 *181:34 1.36711
25 *181:26 *181:33 0.248566
26 *181:25 *841:Y 1.4
27 *181:24 *181:31 1.4
28 *181:22 *181:30 0.124283
29 *181:21 *770:B1 1.4
30 *181:21 *181:28 0.220714
31 *181:20 *181:27 1.4
32 *181:20 *181:26 0.372849
33 *181:19 *181:25 0.37285
34 *181:18 *181:24 2.23709
35 *181:15 *754:B1 1.4
36 *181:15 *181:22 0.621415
37 *181:14 *181:21 1.4
38 *181:14 *181:20 1.11855
39 *181:13 *181:19 0.124283
40 *181:12 *181:18 1.4
41 *181:11 *764:B1 1.4
42 *181:11 *181:16 0.220714
43 *181:10 *181:15 1.4
44 *181:10 *181:14 0.994264
45 *181:9 *181:13 0.497134
46 *181:8 *181:12 1.86425
47 *181:7 *181:11 1.4
48 *181:7 *181:10 1.98853
49 *181:6 *181:9 1.4
50 *181:5 *181:8 1.4
51 *181:4 *181:7 0.497132
52 *181:4 *181:6 0.124283
53 *181:2 *181:5 2.23709
54 *181:2 *181:4 0.497132
55 *181:1 *772:B1 1.4
56 *181:1 *181:2 1.4
57 *181:0 *181:1 0.220714
*END

*D_NET *182 0.00695863

*CONN
*I *789:B I *C 56.405 27.405 *L 0.00171 *D NOR2XL
*I *788:B I *C 65.685 27.405 *L 0.00171 *D NOR2XL
*I *840:Y O *C 53.795 35.525 *L 0 *D AOI21X1
*I *792:B I *C 53.505 27.405 *L 0.00171 *D NOR2XL
*I *786:B I *C 44.805 27.405 *L 0.00171 *D NOR2XL
*I *790:B I *C 67.715 32.625 *L 0.00171 *D NOR2XL
*I *793:B I *C 66.555 24.795 *L 0.00171 *D NOR2XL
*I *795:A I *C 66.555 40.745 *L 0.00273 *D CLKINVX1
*I *791:B I *C 41.615 32.625 *L 0.00171 *D NOR2XL

*CAP
1 *182:2 0.00067928
2 *182:4 0.00053017
3 *182:5 0.000215381
4 *182:6 6.94766e-05
5 *182:7 0.000503705
6 *182:8 0.000186278
7 *182:9 0.000104215
8 *182:11 0.000486336
9 *182:12 1.73691e-05
10 *182:13 0.000466025
11 *182:14 0.000312645
12 *182:17 0.000346019
13 *182:18 0.000312645
14 *182:19 0.000104215
15 *182:20 0.000103545
16 *182:21 5.21074e-05
17 *182:22 0.000138953
18 *182:23 0.000151639
19 *182:24 0.000120803
20 *182:26 0.000521074
21 *182:27 5.21074e-05
22 *182:28 0.00013427
23 *182:29 8.62879e-05
24 *182:30 0.000503705
25 *182:33 6.90303e-05
26 *182:35 0.000207611
27 *182:36 0.000207611
28 *182:37 0.000138061
29 *182:38 0.000138061

*RES
1 *182:38 *791:B 1.4
2 *182:37 *182:38 0.994267
3 *182:36 *182:37 1.4
4 *182:35 *182:36 1.49139
5 *182:33 *182:35 1.4
6 *182:30 *795:A 1.4
7 *182:29 *182:33 0.497134
8 *182:28 *793:B 1.4
9 *182:27 *790:B 1.4
10 *182:26 *182:30 3.6042
11 *182:24 *182:29 0.124283
12 *182:23 *182:28 0.99429
13 *182:22 *182:27 0.372849
14 *182:21 *182:26 0.124283
15 *182:20 *786:B 1.4
16 *182:20 *182:24 0.7457
17 *182:19 *182:23 0.124283
18 *182:18 *182:22 0.621415
19 *182:18 *182:21 0.248566
20 *182:17 *182:20 1.4
21 *182:14 *182:19 0.621415
22 *182:14 *182:18 1.36711
23 *182:13 *182:17 2.48566
24 *182:12 *792:B 1.4
25 *182:11 *840:Y 1.4
26 *182:9 *182:14 0.248566
27 *182:8 *182:13 0.869981
28 *182:7 *182:12 0.124283
29 *182:7 *182:11 3.47992
30 *182:6 *788:B 1.4
31 *182:6 *182:9 0.497132
32 *182:5 *182:8 0.497132
33 *182:5 *182:7 1.4
34 *182:4 *182:6 1.4
35 *182:2 *182:5 1.11855
36 *182:2 *182:4 3.97706
37 *182:1 *789:B 1.4
38 *182:1 *182:2 1.4
39 *182:0 *182:1 0.220714
*END

*D_NET *183 0.000982989

*CONN
*I *749:B1 I *C 17.545 32.335 *L 0.00283 *D AOI22X1
*I *814:A I *C 18.715 35.2975 *L 0.00163 *D INVXL
*I *839:Y O *C 21.315 32.045 *L 0 *D MXI2XL

*CAP
1 *183:1 5.05753e-05
2 *183:2 0.000101151
3 *183:3 4.77236e-05
4 *183:4 8.42922e-05
5 *183:5 0.000159079
6 *183:6 0.000101151
7 *183:7 0.000159079
8 *183:8 6.74337e-05
9 *183:9 4.77236e-05
10 *183:10 3.18157e-05
11 *183:11 5.05753e-05
12 *814:A 3.18157e-05
13 *183:13 5.05753e-05

*RES
1 *183:13 *839:Y 1.4
2 *183:11 *183:13 0.372866
3 *183:10 *814:A 0.248578
4 *183:9 *183:11 1.4
5 *183:8 *183:10 1.4
6 *183:7 *183:9 0.372866
7 *183:6 *183:8 0.497155
8 *183:5 *183:7 0.870021
9 *183:4 *183:6 0.248578
10 *183:3 *183:5 0.372866
11 *183:2 *183:4 0.372866
12 *183:2 *183:3 1.4
13 *183:1 *183:2 0.372866
14 *749:B1 *183:1 1.4
*END

*D_NET *184 0.000797798

*CONN
*I *752:A0 I *C 19.575 30.015 *L 0.00265 *D OAI22X1
*I *814:Y O *C 19.0775 35.235 *L 0 *D INVXL

*CAP
1 *184:2 3.18157e-05
2 *184:4 3.18157e-05
3 *184:5 0.000303452
4 *184:6 0.000303452
5 *184:7 6.36315e-05
6 *814:Y 6.36315e-05

*RES
1 *184:7 *814:Y 0.497155
2 *184:6 *184:7 1.4
3 *184:5 *184:6 2.2372
4 *184:4 *184:5 1.4
5 *184:2 *184:4 0.248578
6 *184:1 *752:A0 1.4
7 *184:1 *184:2 1.4
8 *184:0 *184:1 0.03
*END

*D_NET *185 0.00194391

*CONN
*I *767:B0 I *C 37.845 16.675 *L 0.00262 *D OAI22X1
*I *838:Y O *C 41.905 21.605 *L 0 *D MXI2XL
*I *774:A0 I *C 44.225 14.355 *L 0.00265 *D OAI22X1

*CAP
1 *185:1 0.000155
2 *185:2 0.000155
3 *185:3 0.000242537
4 *185:4 0.000398453
5 *185:5 0.0001085
6 *185:6 0.000155917
7 *185:7 0.0001085
8 *185:8 0.000186
9 *185:10 0.0002015
10 *185:11 0.000124
11 *185:12 0.0001085

*RES
1 *185:12 *774:A0 1.4
2 *185:11 *185:12 0.869984
3 *185:10 *185:11 0.124283
4 *185:8 *185:10 1.4914
5 *185:7 *838:Y 1.4
6 *185:6 *185:8 1.4
7 *185:5 *185:7 0.869984
8 *185:4 *185:6 1.11855
9 *185:4 *185:5 1.4
10 *185:3 *185:4 1.73996
11 *185:2 *185:3 1.4
12 *185:1 *185:2 1.24283
13 *767:B0 *185:1 1.4
*END

*D_NET *186 0.000866184

*CONN
*I *767:A0 I *C 36.685 16.965 *L 0.00265 *D OAI22X1
*I *777:B0 I *C 34.365 16.675 *L 0.00262 *D OAI22X1
*I *837:Y O *C 34.365 21.605 *L 0 *D MXI2XL

*CAP
1 *186:2 0.000103944
2 *186:4 0.000103944
3 *186:5 0.000155
4 *186:6 0.000186
5 *186:7 3.46481e-05
6 *186:8 0.0001395
7 *777:B0 3.46481e-05
8 *186:10 0.0001085

*RES
1 *186:10 *837:Y 1.4
2 *186:8 *186:10 0.869984
3 *186:7 *777:B0 0.248566
4 *186:6 *186:8 0.248567
5 *186:5 *186:7 1.4
6 *186:5 *186:6 1.24283
7 *186:4 *186:5 1.4
8 *186:2 *186:4 0.745697
9 *186:1 *767:A0 1.4
10 *186:1 *186:2 1.4
11 *186:0 *186:1 0.220714
*END

*D_NET *187 0.0019895

*CONN
*I *745:B0 I *C 45.385 16.675 *L 0.0028 *D OAI21X1
*I *765:B1 I *C 42.485 16.675 *L 0.00164 *D AO22X1
*I *836:Y O *C 37.555 25.375 *L 0 *D MXI2XL

*CAP
1 *187:1 1.55e-05
2 *187:2 1.55e-05
3 *187:4 0.000173241
4 *187:5 0.000173241
5 *187:6 6.19999e-05
6 *187:7 9.29999e-05
7 *187:9 0.000217
8 *187:10 0.000217
9 *187:11 0.0001705
10 *187:12 0.0001395
11 *187:13 0.000294509
12 *187:14 0.000294509
13 *187:15 6.19999e-05
14 *187:16 6.19999e-05

*RES
1 *187:16 *836:Y 1.4
2 *187:15 *187:16 0.497134
3 *187:14 *187:15 1.4
4 *187:13 *187:14 2.11281
5 *187:12 *187:13 1.4
6 *187:11 *187:12 1.11855
7 *187:10 *187:11 0.248567
8 *187:9 *187:10 1.4914
9 *187:7 *187:9 0.248567
10 *187:6 *765:B1 1.4
11 *187:6 *187:7 0.497134
12 *187:5 *187:6 1.4
13 *187:4 *187:5 1.24283
14 *187:2 *187:4 1.4
15 *187:1 *745:B0 1.4
16 *187:1 *187:2 0.124283
17 *187:0 *187:1 0.212143
*END

*D_NET *188 0.00116298

*CONN
*I *813:A I *C 12.325 32.335 *L 0.00273 *D INVX1
*I *743:B1 I *C 15.225 32.335 *L 0.00283 *D AOI22X1
*I *835:Y O *C 16.095 35.815 *L 0 *D MXI2XL

*CAP
1 *188:1 3.37169e-05
2 *188:2 5.05753e-05
3 *188:3 0.000101151
4 *188:4 8.42922e-05
5 *188:5 0.000143171
6 *188:6 0.000143171
7 *188:7 0.00021916
8 *188:8 0.000151726
9 *188:9 0.000118009
10 *188:10 8.42922e-05
11 *188:12 3.37169e-05

*RES
1 *188:12 *835:Y 1.4
2 *188:10 *188:12 0.248578
3 *188:9 *743:B1 1.4
4 *188:8 *188:10 0.372866
5 *188:7 *188:9 0.870021
6 *188:7 *188:8 0.745732
7 *188:6 *188:7 1.4
8 *188:5 *188:6 1.1186
9 *188:4 *188:5 1.4
10 *188:3 *188:4 0.621444
11 *188:2 *188:3 0.124289
12 *188:1 *188:2 0.248578
13 *813:A *188:1 1.4
*END

*D_NET *189 0.000731762

*CONN
*I *813:Y O *C 12.6975 32.335 *L 0 *D INVX1
*I *757:A0 I *C 18.995 32.625 *L 0.00265 *D OAI22X1

*CAP
1 *189:3 1.59079e-05
2 *189:4 0.000365881
3 *189:5 0.000349973

*RES
1 *189:6 *757:A0 1.4
2 *189:6 *189:7 0.220714
3 *189:5 *189:6 1.4
4 *189:4 *189:5 2.73435
5 *189:3 *189:4 0.124289
6 *189:1 *189:3 1.4
7 *189:1 *813:Y 1.4
8 *189:0 *189:1 0.220714
*END

*D_NET *190 0.000685796

*CONN
*I *834:Y O *C 55.535 21.605 *L 0 *D MXI2XL
*I *780:B0 I *C 57.275 19.865 *L 0.00262 *D OAI22X1
*I *758:A0 I *C 58.725 19.575 *L 0.00265 *D OAI22X1

*CAP
1 *190:0 0.000195942
2 *190:1 9.79709e-05
3 *190:2 0.00021227
4 *190:4 0.000114299
5 *190:5 3.2657e-05
6 *190:6 3.2657e-05

*RES
1 *190:6 *758:A0 1.4
2 *190:5 *780:B0 1.4
3 *190:4 *190:6 0.248577
4 *190:2 *190:5 0.248577
5 *190:2 *190:4 0.621444
6 *190:1 *834:Y 1.4
7 *190:0 *190:2 0.745732
8 *190:0 *190:1 0.745732
*END

*D_NET *191 0.00149712

*CONN
*I *752:B1 I *C 20.445 30.015 *L 0.00282 *D OAI22X1
*I *812:A I *C 25.095 30.0775 *L 0.00163 *D INVXL
*I *833:Y O *C 26.535 35.815 *L 0 *D MXI2XL

*CAP
1 *191:1 1.68584e-05
2 *191:2 3.37169e-05
3 *191:3 5.05753e-05
4 *191:4 3.37169e-05
5 *191:5 3.18157e-05
6 *191:6 6.36315e-05
7 *191:7 0.000174987
8 *191:8 0.000174987
9 *191:9 0.000101151
10 *812:A 3.18157e-05
11 *191:11 0.000118009
12 *191:12 8.42922e-05
13 *191:13 0.000169183
14 *191:14 0.000257067
15 *191:15 0.000155318

*RES
1 *191:15 *833:Y 1.4
2 *191:14 *191:15 1.11855
3 *191:13 *191:14 0.745724
4 *191:12 *191:13 0.497155
5 *191:11 *191:12 0.124289
6 *191:9 *191:11 0.745732
7 *191:8 *812:A 0.248578
8 *191:8 *191:9 1.4
9 *191:7 *191:8 1.1186
10 *191:6 *191:7 0.248578
11 *191:5 *191:6 0.248578
12 *191:4 *191:5 1.4
13 *191:3 *191:4 0.248578
14 *191:2 *191:3 0.124289
15 *191:1 *191:2 0.124289
16 *752:B1 *191:1 1.4
*END

*D_NET *192 0.000269735

*CONN
*I *812:Y O *C 25.4575 30.015 *L 0 *D INVXL
*I *748:A0 I *C 25.375 32.625 *L 0.00264 *D AOI22X1

*CAP
1 *192:1 0.000134867
2 *192:2 0.000134867

*RES
1 *192:2 *748:A0 1.4
2 *192:1 *192:2 0.99431
3 *812:Y *192:1 1.4
*END

*D_NET *193 0.00127879

*CONN
*I *811:A I *C 31.185 30.0775 *L 0.00163 *D INVXL
*I *760:B1 I *C 29.145 32.625 *L 0.00282 *D OAI22X1
*I *832:Y O *C 32.335 35.815 *L 0 *D MXI2XL

*CAP
1 *193:2 8.65046e-05
2 *193:4 0.000103806
3 *193:5 5.19028e-05
4 *193:6 3.46019e-05
5 *193:7 0.000155318
6 *193:8 0.000155318
7 *193:9 1.73009e-05
8 *193:11 0.000207611
9 *193:12 0.00019031
10 *193:13 0.000138061
11 *193:14 0.000138061

*RES
1 *193:14 *832:Y 1.4
2 *193:13 *193:14 0.994267
3 *193:12 *193:13 1.4
4 *193:11 *193:12 1.36711
5 *193:9 *193:11 0.124283
6 *193:8 *760:B1 1.4
7 *193:8 *193:9 1.4
8 *193:7 *193:8 1.11855
9 *193:6 *193:7 1.4
10 *193:5 *193:6 0.248566
11 *193:4 *193:5 0.124283
12 *193:2 *193:4 0.621415
13 *193:1 *811:A 1.4
14 *193:1 *193:2 1.4
15 *193:0 *193:1 0.220714
*END

*D_NET *194 0.000517814

*CONN
*I *811:Y O *C 31.5475 30.015 *L 0 *D INVXL
*I *751:A0 I *C 32.915 32.625 *L 0.00264 *D AOI22X1

*CAP
1 *194:1 1.72576e-05
2 *194:2 3.45151e-05
3 *194:3 6.90303e-05
4 *194:4 0.000207091
5 *194:5 0.000155318
6 *194:6 1.73009e-05
7 *751:A0 1.73009e-05

*RES
1 *194:6 *751:A0 0.124283
2 *194:5 *194:6 1.4
3 *194:4 *194:5 1.11855
4 *194:3 *194:4 0.37285
5 *194:2 *194:3 0.124283
6 *194:1 *194:2 0.124283
7 *811:Y *194:1 1.4
*END

*D_NET *195 0.000690001

*CONN
*I *747:B1 I *C 16.095 16.965 *L 0.00282 *D OAI22X1
*I *831:Y O *C 17.255 20.155 *L 0 *D MXI2XL
*I *756:A0 I *C 18.995 16.965 *L 0.00265 *D OAI22X1

*CAP
1 *195:1 3.13637e-05
2 *195:2 9.4091e-05
3 *195:3 0.000266591
4 *195:4 0.000109773
5 *195:5 0.000141136
6 *195:7 4.70455e-05

*RES
1 *195:7 *756:A0 1.4
2 *195:5 *195:7 0.372866
3 *195:4 *831:Y 1.4
4 *195:3 *195:5 0.745733
5 *195:3 *195:4 0.870021
6 *195:2 *195:3 0.497155
7 *195:1 *195:2 0.248578
8 *747:B1 *195:1 1.4
*END

*D_NET *196 0.000738707

*CONN
*I *830:Y O *C 59.305 25.375 *L 0 *D MXI2XL
*I *808:A I *C 63.365 24.795 *L 0.00157 *D NAND2XL
*I *744:B0 I *C 65.685 25.085 *L 0.0028 *D OAI21X1

*CAP
1 *196:1 1.63285e-05
2 *196:3 1.63285e-05
3 *196:4 0.000224652
4 *196:5 0.000353025
5 *196:6 0.000128373

*RES
1 *196:8 *744:B0 1.4
2 *196:8 *196:11 0.220714
3 *196:7 *808:A 1.4
4 *196:7 *196:9 0.220714
5 *196:6 *196:8 1.4
6 *196:5 *196:7 1.4
7 *196:5 *196:6 0.994264
8 *196:4 *196:5 1.73996
9 *196:3 *196:4 1.4
10 *196:1 *196:3 0.124289
11 *196:1 *830:Y 1.4
12 *196:0 *196:1 0.212143
*END

*D_NET *197 0.00134765

*CONN
*I *753:B1 I *C 31.465 32.625 *L 0.00282 *D OAI22X1
*I *829:Y O *C 31.465 37.265 *L 0 *D MXI2XL
*I *810:A I *C 36.695 32.5625 *L 0.00163 *D INVXL

*CAP
1 *197:1 6.90303e-05
2 *197:2 0.000276121
3 *197:3 0.000207091
4 *197:4 0.000311417
5 *197:6 0.000311417
6 *197:7 8.62879e-05
7 *197:8 8.62879e-05

*RES
1 *197:8 *810:A 1.4
2 *197:7 *197:8 0.621417
3 *197:6 *197:7 1.4
4 *197:4 *197:6 2.23709
5 *197:3 *829:Y 1.4
6 *197:2 *197:4 1.4
7 *197:2 *197:3 1.4914
8 *197:1 *197:2 0.497134
9 *753:B1 *197:1 1.4
*END

*D_NET *198 0.000103806

*CONN
*I *750:B0 I *C 36.105 32.335 *L 0.0028 *D OAI21X1
*I *810:Y O *C 37.0575 32.625 *L 0 *D INVXL

*CAP
1 *198:2 5.19028e-05
2 *198:4 5.19028e-05

*RES
1 *198:5 *198:7 0.220714
2 *198:5 *810:Y 1.4
3 *198:4 *198:5 1.4
4 *198:2 *198:4 0.372849
5 *198:1 *750:B0 1.4
6 *198:1 *198:2 1.4
7 *198:0 *198:1 0.220714
*END

*D_NET *199 0.000942171

*CONN
*I *733:A0 I *C 8.265 35.525 *L 0.00158 *D AOI21XL
*I *739:A I *C 10.005 35.525 *L 0.00162 *D NOR2XL
*I *828:Y O *C 9.425 41.035 *L 0 *D NAND2XL

*CAP
1 *199:0 0.000134867
2 *199:1 0.000134867
3 *199:2 5.05753e-05
4 *199:3 0.00032031
5 *199:5 0.000269735
6 *199:7 1.59079e-05
7 *828:Y 1.59079e-05

*RES
1 *199:7 *828:Y 0.124289
2 *199:5 *199:7 1.4
3 *199:3 *739:A 1.4
4 *199:3 *199:5 1.98862
5 *199:2 *733:A0 1.4
6 *199:1 *199:3 0.372866
7 *199:0 *199:2 0.372866
8 *199:0 *199:1 0.621444
*END

*D_NET *200 0.00116663

*CONN
*I *827:Y O *C 56.985 25.375 *L 0 *D MXI2XL
*I *758:B0 I *C 59.885 19.865 *L 0.00262 *D OAI22X1
*I *776:A0 I *C 61.915 19.865 *L 0.00271 *D OAI21X1

*CAP
1 *200:0 0.000130628
2 *200:1 0.000114299
3 *200:2 0.000114299
4 *200:4 9.79709e-05
5 *200:5 0.000144419
6 *200:6 0.000144419
7 *200:7 9.79709e-05
8 *200:8 9.79709e-05
9 *758:B0 0.000112326
10 *776:A0 0.000112326

*RES
1 *758:B0 *776:A0 0.869981
2 *200:8 *758:B0 1.4
3 *200:7 *200:8 0.745732
4 *200:6 *200:7 1.4
5 *200:5 *200:6 1.11855
6 *200:4 *200:5 1.4
7 *200:2 *200:4 0.745732
8 *200:1 *827:Y 1.4
9 *200:0 *200:2 0.124289
10 *200:0 *200:1 0.870021
*END

*D_NET *201 0.000932516

*CONN
*I *809:A I *C 32.045 30.305 *L 0.00273 *D INVX1
*I *751:B1 I *C 33.785 32.335 *L 0.00283 *D AOI22X1
*I *826:Y O *C 34.655 35.815 *L 0 *D MXI2XL

*CAP
1 *201:1 5.17727e-05
2 *201:2 5.17727e-05
3 *201:3 1.73009e-05
4 *201:4 0.000121107
5 *201:5 0.000103806
6 *201:6 5.17727e-05
7 *201:7 0.000172576
8 *201:8 0.000172576
9 *201:10 0.000120803
10 *201:11 6.90303e-05

*RES
1 *201:11 *826:Y 1.4
2 *201:10 *201:11 0.497134
3 *201:8 *201:10 0.37285
4 *201:7 *751:B1 1.4
5 *201:7 *201:8 0.869984
6 *201:6 *201:7 0.37285
7 *201:5 *201:6 1.4
8 *201:4 *201:5 0.745697
9 *201:3 *201:4 0.124283
10 *201:2 *201:3 1.4
11 *201:1 *201:2 0.37285
12 *809:A *201:1 1.4
*END

*D_NET *202 0.000483212

*CONN
*I *753:A0 I *C 30.595 32.625 *L 0.00265 *D OAI22X1
*I *809:Y O *C 32.4175 30.305 *L 0 *D INVX1

*CAP
1 *202:0 0.000155318
2 *202:1 0.000189833
3 *202:2 5.17727e-05
4 *202:3 8.62879e-05

*RES
1 *202:3 *809:Y 1.4
2 *202:2 *753:A0 1.4
3 *202:1 *202:3 0.621417
4 *202:0 *202:2 0.37285
5 *202:0 *202:1 0.7457
*END

*D_NET *203 0.00103213

*CONN
*I *774:B0 I *C 45.385 14.645 *L 0.00262 *D OAI22X1
*I *769:A0 I *C 48.575 16.965 *L 0.00265 *D OAI22X1
*I *825:Y O *C 49.155 20.155 *L 0 *D MXI2XL

*CAP
1 *774:B0 0.000190565
2 *203:1 0.000190565
3 *203:2 0.0001395
4 *203:3 0.000217
5 *203:4 0.0001085
6 *203:6 0.0001085
7 *203:7 7.74999e-05

*RES
1 *203:7 *825:Y 1.4
2 *203:6 *203:7 0.621417
3 *203:4 *203:6 0.248567
4 *203:3 *769:A0 1.4
5 *203:3 *203:4 0.621417
6 *203:2 *203:3 1.11855
7 *203:1 *203:2 1.4
8 *774:B0 *203:1 1.36711
*END

*D_NET *204 0.000942777

*CONN
*I *824:Y O *C 39.005 21.605 *L 0 *D MXI2XL
*I *765:A0 I *C 41.325 16.965 *L 0.00162 *D AO22X1
*I *763:B0 I *C 40.455 16.675 *L 0.00265 *D AOI22X1

*CAP
1 *204:0 0.000138592
2 *204:1 0.000155
3 *204:2 0.000138592
4 *204:3 0.000155
5 *204:4 0.0001085
6 *204:6 0.0001085
7 *765:A0 3.46481e-05
8 *204:8 5.19722e-05
9 *204:9 3.46481e-05
10 *763:B0 1.73241e-05

*RES
1 *204:9 *763:B0 0.124283
2 *204:8 *204:9 0.124283
3 *765:A0 *204:8 0.248566
4 *204:6 *765:A0 1.4
5 *204:4 *204:6 0.869984
6 *204:3 *824:Y 1.4
7 *204:2 *204:4 1.4
8 *204:1 *204:3 1.24283
9 *204:0 *204:2 0.994263
10 *204:0 *204:1 1.4
*END

*D_NET *205 0.00131006

*CONN
*I *769:B0 I *C 49.735 16.675 *L 0.00262 *D OAI22X1
*I *823:Y O *C 53.215 20.155 *L 0 *D MXI2XL
*I *780:A0 I *C 56.115 19.575 *L 0.00265 *D OAI22X1

*CAP
1 *205:1 4.64999e-05
2 *205:2 4.64999e-05
3 *205:3 0.000203418
4 *205:4 0.000267604
5 *205:5 0.000114299
6 *205:6 8.0233e-05
7 *205:7 0.000114299
8 *205:8 0.000112326
9 *205:10 9.62795e-05
10 *205:11 0.000114299
11 *205:12 0.000114299

*RES
1 *205:12 *780:A0 1.4
2 *205:11 *205:12 0.870021
3 *205:10 *205:11 1.4
4 *205:8 *205:10 0.745698
5 *205:7 *823:Y 1.4
6 *205:6 *205:8 0.124283
7 *205:5 *205:7 0.870021
8 *205:4 *205:6 0.497132
9 *205:4 *205:5 1.4
10 *205:3 *205:4 1.4914
11 *205:2 *205:3 1.4
12 *205:1 *205:2 0.37285
13 *769:B0 *205:1 1.4
*END

*D_NET *206 0.000849081

*CONN
*I *776:B0 I *C 62.785 19.865 *L 0.0028 *D OAI21X1
*I *808:Y O *C 63.945 25.375 *L 0 *D NAND2XL

*CAP
1 *206:0 9.79709e-05
2 *206:1 0.000261256
3 *206:2 3.2657e-05
4 *206:3 0.00021227
5 *206:5 0.000130628
6 *206:6 0.000114299

*RES
1 *206:6 *808:Y 1.4
2 *206:5 *206:6 0.870021
3 *206:3 *206:5 0.124289
4 *206:2 *776:B0 1.4
5 *206:1 *206:3 1.49146
6 *206:0 *206:2 0.248577
7 *206:0 *206:1 0.497155
*END

*D_NET *207 0.000521074

*CONN
*I *807:Y O *C 67.715 37.265 *L 0 *D NAND2XL
*I *775:B0 I *C 70.035 35.525 *L 0.0028 *D OAI21X1

*CAP
1 *207:1 1.73691e-05
2 *207:2 0.000121584
3 *207:3 0.00020843
4 *207:4 0.000138953
5 *207:5 3.47383e-05

*RES
1 *207:5 *775:B0 1.4
2 *207:4 *207:5 0.248566
3 *207:3 *207:4 0.745697
4 *207:2 *207:3 0.745697
5 *207:1 *207:2 0.124283
6 *807:Y *207:1 1.4
*END

*D_NET *208 0.000359227

*CONN
*I *805:Y O *C 62.8675 24.795 *L 0 *D INVXL
*I *744:A0 I *C 64.815 25.085 *L 0.00271 *D OAI21X1

*CAP
1 *208:1 3.2657e-05
2 *208:2 0.000146956
3 *208:3 0.000146956
4 *208:4 3.2657e-05

*RES
1 *208:4 *744:A0 1.4
2 *208:3 *208:4 0.248577
3 *208:2 *208:3 0.870021
4 *208:1 *208:2 0.248577
5 *805:Y *208:1 1.4
*END

*D_NET *209 0.00653425

*CONN
*I *777:A1 I *C 33.495 16.965 *L 0.00277 *D OAI22X1
*I *755:A1 I *C 31.465 19.575 *L 0.00277 *D OAI22X1
*I *767:A1 I *C 36.975 16.965 *L 0.00277 *D OAI22X1
*I *806:Y O *C 34.655 25.375 *L 0 *D NAND2XL
*I *774:A1 I *C 44.515 14.355 *L 0.00277 *D OAI22X1
*I *769:A1 I *C 48.865 16.965 *L 0.00277 *D OAI22X1
*I *780:A1 I *C 56.405 19.575 *L 0.00277 *D OAI22X1
*I *758:A1 I *C 59.015 19.575 *L 0.00277 *D OAI22X1
*I *776:A1 I *C 62.205 19.575 *L 0.00274 *D OAI21X1
*I *805:A I *C 62.505 24.8575 *L 0.00163 *D INVXL

*CAP
1 *209:1 6.19999e-05
2 *209:2 6.19999e-05
3 *209:3 0.000121268
4 *209:5 0.000207889
5 *209:6 0.000121268
6 *209:7 0.000658314
7 *209:8 0.0001395
8 *209:9 0.000402999
9 *209:10 0.000658314
10 *209:11 0.0001395
11 *209:12 0.000341
12 *209:13 6.19999e-05
13 *209:14 0.000225213
14 *209:15 0.0002015
15 *209:17 0.000121268
16 *209:19 6.92962e-05
17 *209:20 0.0002015
18 *209:21 0.000121268
19 *209:22 5.19722e-05
20 *209:25 9.29999e-05
21 *209:26 4.64999e-05
22 *209:31 9.29999e-05
23 *209:32 4.64999e-05
24 *209:35 0.000431902
25 *209:37 0.000576322
26 *209:38 0.000272792
27 *209:40 0.000176513
28 *209:44 4.81398e-05
29 *209:45 0.000114299
30 *209:49 0.000130628
31 *209:52 0.000146956
32 *209:53 0.000146956
33 *209:54 6.53139e-05
34 *209:55 4.89854e-05
35 *209:56 6.41864e-05
36 *805:A 6.41864e-05

*RES
1 *209:56 *805:A 0.497132
2 *209:55 *209:56 1.4
3 *209:54 *209:55 0.372866
4 *209:53 *209:54 0.124289
5 *209:52 *209:53 0.99431
6 *209:49 *209:52 0.124289
7 *209:48 *776:A1 1.4
8 *209:48 *209:50 0.220714
9 *209:45 *209:49 0.870021
10 *209:44 *209:48 1.4
11 *209:41 *758:A1 1.4
12 *209:41 *209:46 0.220714
13 *209:40 *209:45 1.4
14 *209:40 *209:44 0.372849
15 *209:39 *780:A1 1.4
16 *209:39 *209:42 0.220714
17 *209:38 *209:41 1.4
18 *209:38 *209:40 0.994264
19 *209:37 *209:39 1.4
20 *209:37 *209:38 1.11855
21 *209:35 *209:37 3.23136
22 *209:32 *769:A1 1.4
23 *209:31 *209:35 1.4
24 *209:28 *774:A1 1.4
25 *209:28 *209:33 0.220714
26 *209:26 *209:32 0.37285
27 *209:25 *209:31 0.7457
28 *209:24 *209:30 0.03
29 *209:24 *806:Y 1.4
30 *209:23 *209:28 1.4
31 *209:23 *209:27 0.220714
32 *209:22 *209:26 1.4
33 *209:22 *209:25 1.4
34 *209:21 *209:24 1.4
35 *209:20 *209:23 1.4
36 *209:19 *209:22 0.372849
37 *209:17 *209:21 0.86998
38 *209:15 *209:20 1.61568
39 *209:14 *209:19 0.124283
40 *209:13 *767:A1 1.4
41 *209:12 *209:17 1.4
42 *209:11 *755:A1 1.4
43 *209:10 *209:15 1.4
44 *209:10 *209:14 1.49139
45 *209:9 *209:13 0.497134
46 *209:9 *209:12 2.73423
47 *209:8 *209:11 1.11855
48 *209:7 *209:10 3.23136
49 *209:7 *209:9 1.4
50 *209:6 *209:8 1.4
51 *209:5 *209:7 1.49139
52 *209:3 *209:6 0.86998
53 *209:2 *209:5 1.4
54 *209:1 *777:A1 1.4
55 *209:1 *209:3 1.4
56 *209:1 *209:2 0.497134
57 *209:0 *209:1 0.220714
*END

*D_NET *210 0.00116526

*CONN
*I *763:A1 I *C 39.585 16.385 *L 0.0028 *D AOI22X1
*I *765:A1 I *C 41.905 16.675 *L 0.00163 *D AO22X1
*I *745:A1 I *C 44.805 16.965 *L 0.00274 *D OAI21X1
*I *803:Y O *C 40.8275 14.645 *L 0 *D CLKINVX1

*CAP
1 *210:2 0.000138592
2 *210:4 0.000138592
3 *210:5 7.74999e-05
4 *210:6 7.74999e-05
5 *210:9 0.000242537
6 *210:10 0.000173241
7 *210:11 6.92962e-05
8 *210:12 9.29999e-05
9 *210:13 3.1e-05
10 *210:14 9.29999e-05
11 *210:15 3.1e-05

*RES
1 *210:15 *803:Y 1.4
2 *210:14 *745:A1 1.4
3 *210:13 *210:15 0.248567
4 *210:12 *210:14 0.7457
5 *210:11 *210:13 1.4
6 *210:10 *210:12 1.4
7 *210:9 *210:11 0.497132
8 *210:9 *210:10 1.24283
9 *210:6 *210:9 1.4
10 *210:5 *765:A1 1.4
11 *210:5 *210:7 0.220714
12 *210:5 *210:6 0.621417
13 *210:4 *210:5 1.4
14 *210:2 *210:4 0.994263
15 *210:1 *763:A1 1.4
16 *210:1 *210:2 1.4
17 *210:0 *210:1 0.220714
*END

*D_NET *211 0.00468489

*CONN
*I *756:A1 I *C 19.285 16.965 *L 0.00277 *D OAI22X1
*I *747:A1 I *C 15.515 16.965 *L 0.00277 *D OAI22X1
*I *773:A1 I *C 32.045 14.355 *L 0.00277 *D OAI22X1
*I *778:A1 I *C 37.555 14.355 *L 0.00277 *D OAI22X1
*I *766:A1 I *C 26.245 19.575 *L 0.00277 *D OAI22X1
*I *803:A I *C 40.455 14.645 *L 0.00273 *D CLKINVX1
*I *804:Y O *C 14.065 21.605 *L 0 *D NAND2XL
*I *768:A1 I *C 13.195 19.575 *L 0.00277 *D OAI22X1

*CAP
1 *211:2 7.60047e-05
2 *211:4 7.60047e-05
3 *211:5 0.000152009
4 *211:6 0.000364823
5 *211:7 0.000152009
6 *211:8 0.000681964
7 *211:9 4.56028e-05
8 *211:10 0.000691901
9 *211:11 0.000141136
10 *211:12 0.000188182
11 *211:13 0.000485074
12 *211:14 9.29999e-05
13 *211:15 0.000156727
14 *211:16 0.000188182
15 *211:18 0.000155917
16 *211:19 9.29999e-05
17 *211:20 9.29999e-05
18 *211:21 6.20908e-05
19 *211:22 7.60047e-05
20 *211:23 7.74999e-05
21 *211:24 9.29999e-05
22 *211:26 4.64999e-05
23 *211:27 0.000121608
24 *211:28 9.29999e-05
25 *211:31 6.27273e-05
26 *211:32 4.56028e-05
27 *211:33 1.55e-05
28 *211:34 6.27273e-05
29 *211:35 4.70455e-05
30 *211:38 4.70455e-05

*RES
1 *211:38 *768:A1 1.4
2 *211:35 *211:38 0.372866
3 *211:34 *804:Y 1.4
4 *211:33 *803:A 1.4
5 *211:32 *211:35 1.4
6 *211:31 *211:34 0.497155
7 *211:28 *211:33 0.124283
8 *211:27 *211:32 0.372866
9 *211:27 *211:31 1.4
10 *211:26 *766:A1 1.4
11 *211:24 *778:A1 1.4
12 *211:23 *211:28 0.621417
13 *211:22 *211:27 0.621444
14 *211:21 *211:26 0.37285
15 *211:20 *773:A1 1.4
16 *211:19 *211:24 0.7457
17 *211:18 *211:23 1.4
18 *211:16 *211:22 1.4
19 *211:15 *211:21 0.124286
20 *211:14 *211:20 0.7457
21 *211:13 *211:19 1.4
22 *211:13 *211:18 1.11855
23 *211:12 *747:A1 1.4
24 *211:12 *211:16 1.49147
25 *211:11 *211:15 1.1186
26 *211:10 *211:14 1.4
27 *211:10 *211:13 2.36138
28 *211:9 *211:12 1.4
29 *211:8 *211:11 1.4
30 *211:8 *211:10 2.60994
31 *211:7 *211:9 0.372866
32 *211:6 *211:8 2.61006
33 *211:5 *211:7 0.870021
34 *211:4 *211:6 0.372866
35 *211:2 *211:5 0.372866
36 *211:2 *211:4 0.248578
37 *211:1 *756:A1 1.4
38 *211:1 *211:2 1.4
39 *211:0 *211:1 0.220714
*END

*D_NET *212 0.00034578

*CONN
*I *746:A0 I *C 68.875 40.745 *L 0.00271 *D OAI21X1
*I *801:Y O *C 68.6675 43.065 *L 0 *D INVXL

*CAP
1 *212:0 1.65678e-05
2 *212:1 0.000156322
3 *746:A0 1.65678e-05
4 *212:3 0.000156322

*RES
1 *212:3 *801:Y 1.4
2 *212:1 *212:3 1.11855
3 *212:0 *746:A0 0.124283
4 *212:0 *212:1 1.4
*END

*D_NET *213 0.00585171

*CONN
*I *772:A1 I *C 45.385 32.625 *L 0.00277 *D OAI22X1
*I *764:A1 I *C 47.705 32.625 *L 0.00277 *D OAI22X1
*I *802:Y O *C 52.055 37.265 *L 0 *D NAND2XL
*I *754:A1 I *C 52.345 32.625 *L 0.00277 *D OAI22X1
*I *770:A1 I *C 54.665 32.625 *L 0.00277 *D OAI22X1
*I *771:A1 I *C 57.275 30.015 *L 0.00277 *D OAI22X1
*I *779:A1 I *C 65.395 32.625 *L 0.00277 *D OAI22X1
*I *759:A1 I *C 67.135 35.235 *L 0.00277 *D OAI22X1
*I *775:A1 I *C 69.455 35.235 *L 0.00274 *D OAI21X1
*I *801:A I *C 68.305 43.0025 *L 0.00163 *D INVXL

*CAP
1 *213:2 0.000138407
2 *213:4 0.000138407
3 *213:5 5.17727e-05
4 *213:6 5.17727e-05
5 *213:9 0.000276448
6 *213:10 0.000408991
7 *213:11 0.000295275
8 *213:12 0.000281653
9 *213:13 0.000243168
10 *213:14 5.21074e-05
11 *213:15 0.000265085
12 *213:16 5.21074e-05
13 *213:19 0.000132542
14 *213:20 0.00020843
15 *213:21 5.21074e-05
16 *213:22 0.000364492
17 *213:23 0.00020843
18 *213:25 0.000447331
19 *213:27 9.94068e-05
20 *213:28 3.47383e-05
21 *213:29 6.94766e-05
22 *213:30 3.47383e-05
23 *213:31 0.000121584
24 *213:33 0.000121584
25 *213:34 0.000132542
26 *213:35 6.94766e-05
27 *213:37 0.000132542
28 *213:38 8.2839e-05
29 *213:39 5.21074e-05
30 *213:40 8.2839e-05
31 *213:41 5.21074e-05
32 *213:42 0.00039949
33 *213:44 0.00039949
34 *213:45 0.00014911
35 *801:A 0.00014911

*RES
1 *213:45 *801:A 1.11855
2 *213:44 *213:45 1.4
3 *213:42 *213:44 2.85851
4 *213:41 *775:A1 1.4
5 *213:40 *213:42 1.4
6 *213:39 *213:41 0.372849
7 *213:38 *213:40 0.621415
8 *213:37 *213:39 1.4
9 *213:35 *213:38 1.4
10 *213:34 *213:37 0.994264
11 *213:33 *759:A1 1.4
12 *213:33 *213:35 0.497132
13 *213:31 *213:34 1.4
14 *213:31 *213:33 0.372849
15 *213:30 *779:A1 1.4
16 *213:29 *213:31 0.497132
17 *213:28 *213:30 0.248566
18 *213:27 *213:29 1.4
19 *213:25 *213:28 1.4
20 *213:25 *213:27 0.745698
21 *213:23 *771:A1 1.4
22 *213:22 *213:25 2.60994
23 *213:21 *770:A1 1.4
24 *213:20 *213:23 1.49139
25 *213:19 *213:22 0.124283
26 *213:16 *213:21 0.372849
27 *213:15 *213:20 1.4
28 *213:15 *213:19 0.869981
29 *213:14 *754:A1 1.4
30 *213:13 *802:Y 1.4
31 *213:12 *213:16 1.4
32 *213:12 *213:15 1.11855
33 *213:11 *213:14 0.372849
34 *213:11 *213:13 1.73996
35 *213:10 *213:12 0.994264
36 *213:10 *213:11 1.4
37 *213:9 *213:10 1.98853
38 *213:6 *213:9 1.4
39 *213:5 *764:A1 1.4
40 *213:5 *213:7 0.220714
41 *213:5 *213:6 0.37285
42 *213:4 *213:5 1.4
43 *213:2 *213:4 0.994263
44 *213:1 *772:A1 1.4
45 *213:1 *213:2 1.4
46 *213:0 *213:1 0.220714
*END

*D_NET *214 0.00142967

*CONN
*I *723:A I *C 26.675 16.8 *L 0.00668 *D ADDFXL
*I *800:Y O *C 35.815 24.505 *L 0 *D NOR2XL

*CAP
1 *214:1 1.55e-05
2 *214:2 1.55e-05
3 *214:4 0.000155917
4 *214:5 0.000173241
5 *214:6 0.000121268
6 *214:7 0.000103944
7 *214:8 0.000279
8 *214:9 0.0002945
9 *214:10 0.0001085
10 *214:11 9.29999e-05
11 *214:12 3.46481e-05
12 *800:Y 3.46481e-05

*RES
1 *214:12 *800:Y 0.248566
2 *214:11 *214:12 1.4
3 *214:10 *214:11 0.7457
4 *214:9 *214:10 0.124283
5 *214:8 *214:9 2.2371
6 *214:7 *214:8 1.4
7 *214:6 *214:7 0.745697
8 *214:5 *214:6 0.124283
9 *214:4 *214:5 1.11855
10 *214:2 *214:4 1.4
11 *214:1 *723:A 1.4
12 *214:1 *214:2 0.124283
13 *214:0 *214:1 0.0878571
*END

*D_NET *215 0.000731762

*CONN
*I *727:B I *C 8.555 27.695 *L 0.00625 *D ADDFX1
*I *799:Y O *C 15.225 27.695 *L 0 *D NOR2XL

*CAP
1 *215:2 0.000365881
2 *215:4 0.000365881

*RES
1 *215:5 *215:7 0.220714
2 *215:5 *799:Y 1.4
3 *215:4 *215:5 1.4
4 *215:2 *215:4 2.85864
5 *215:1 *727:B 1.4
6 *215:1 *215:2 1.4
7 *215:0 *215:1 0.220714
*END

*D_NET *216 0.000806799

*CONN
*I *729:A I *C 13.625 14.52 *L 0.00668 *D ADDFXL
*I *798:Y O *C 20.155 19.285 *L 0 *D NOR2XL

*CAP
1 *216:2 0.000106407
2 *216:4 0.000106407
3 *216:5 0.000266591
4 *216:6 0.000266591
5 *216:7 3.04019e-05
6 *798:Y 3.04019e-05

*RES
1 *216:7 *798:Y 0.248578
2 *216:6 *216:7 1.4
3 *216:5 *216:6 2.11291
4 *216:4 *216:5 1.4
5 *216:2 *216:4 0.870021
6 *216:1 *729:A 1.4
7 *216:1 *216:2 1.4
8 *216:0 *216:1 0.220714
*END

*D_NET *217 0.00209307

*CONN
*I *760:A1 I *C 28.565 32.625 *L 0.00277 *D OAI22X1
*I *753:A1 I *C 30.885 32.625 *L 0.00277 *D OAI22X1
*I *796:Y O *C 24.2975 32.335 *L 0 *D CLKINVX1
*I *757:A1 I *C 19.285 32.625 *L 0.00277 *D OAI22X1
*I *752:A1 I *C 19.865 30.015 *L 0.00277 *D OAI22X1

*CAP
1 *217:2 0.000155708
2 *217:4 0.000251852
3 *217:5 0.000138407
4 *217:6 0.000234551
5 *217:8 1.68584e-05
6 *217:11 5.05753e-05
7 *217:12 8.42922e-05
8 *217:14 5.05753e-05
9 *217:15 4.77236e-05
10 *217:16 6.36315e-05
11 *217:17 0.000159079
12 *217:18 0.000159079
13 *217:19 9.54472e-05
14 *217:20 7.95393e-05
15 *217:21 0.000185443
16 *217:22 6.74337e-05
17 *217:23 0.000151726
18 *217:25 6.74337e-05
19 *217:26 3.37169e-05

*RES
1 *217:26 *752:A1 1.4
2 *217:25 *217:26 0.248578
3 *217:23 *217:25 0.248578
4 *217:22 *757:A1 1.4
5 *217:21 *217:23 0.870021
6 *217:21 *217:22 0.497155
7 *217:20 *217:21 1.4
8 *217:19 *217:20 0.621444
9 *217:18 *217:19 0.124289
10 *217:17 *217:18 1.1186
11 *217:16 *217:17 0.124289
12 *217:15 *217:16 0.372866
13 *217:14 *217:15 1.4
14 *217:12 *217:14 0.372866
15 *217:12 *796:Y 1.4
16 *217:11 *217:12 0.248578
17 *217:8 *217:11 0.124289
18 *217:7 *753:A1 1.4
19 *217:7 *217:9 0.220714
20 *217:6 *217:8 1.4
21 *217:5 *217:7 1.4
22 *217:4 *217:6 1.73999
23 *217:2 *217:5 0.994263
24 *217:2 *217:4 0.124283
25 *217:1 *760:A1 1.4
26 *217:1 *217:2 1.4
27 *217:0 *217:1 0.220714
*END

*D_NET *218 0.00304771

*CONN
*I *743:A1 I *C 14.645 32.045 *L 0.0028 *D AOI22X1
*I *749:A1 I *C 16.965 32.045 *L 0.0028 *D AOI22X1
*I *748:A1 I *C 25.665 32.045 *L 0.0028 *D AOI22X1
*I *751:A1 I *C 33.205 32.045 *L 0.0028 *D AOI22X1
*I *797:Y O *C 22.185 34.945 *L 0 *D NOR2XL
*I *796:A I *C 23.925 32.335 *L 0.00273 *D CLKINVX1
*I *750:A1 I *C 35.525 32.625 *L 0.00274 *D OAI21X1

*CAP
1 *218:2 0.000127263
2 *218:4 0.000461328
3 *218:5 0.000477236
4 *218:7 5.05753e-05
5 *218:8 0.000590905
6 *218:11 0.000185443
7 *218:12 0.000586142
8 *218:14 0.000118009
9 *218:15 5.05753e-05
10 *218:16 0.000138407
11 *218:20 4.77236e-05
12 *218:21 3.37169e-05
13 *218:22 3.45151e-05
14 *797:Y 4.77236e-05
15 *218:26 3.18157e-05
16 *218:27 3.45151e-05
17 *796:A 3.18157e-05

*RES
1 *218:27 *750:A1 1.4
2 *218:26 *796:A 0.248578
3 *218:22 *218:27 0.248567
4 *218:21 *218:26 1.4
5 *218:20 *797:Y 0.372866
6 *218:17 *751:A1 1.4
7 *218:17 *218:23 0.220714
8 *218:16 *218:22 1.4
9 *218:15 *218:21 0.248578
10 *218:14 *218:20 1.4
11 *218:13 *748:A1 1.4
12 *218:13 *218:18 0.220714
13 *218:12 *218:17 1.4
14 *218:12 *218:16 0.994263
15 *218:11 *218:15 0.124289
16 *218:11 *218:14 0.870021
17 *218:8 *218:13 1.4
18 *218:8 *218:12 3.23136
19 *218:7 *218:11 0.372866
20 *218:6 *749:A1 1.4
21 *218:6 *218:9 0.220714
22 *218:5 *218:8 1.1186
23 *218:5 *218:7 1.4
24 *218:4 *218:6 1.4
25 *218:4 *218:5 2.61006
26 *218:2 *218:4 0.99431
27 *218:1 *743:A1 1.4
28 *218:1 *218:2 1.4
29 *218:0 *218:1 0.220714
*END

*D_NET *219 0.00102292

*CONN
*I *785:B I *C 70.035 43.065 *L 0.00167 *D NAND2XL
*I *795:Y O *C 66.9275 40.745 *L 0 *D CLKINVX1
*I *794:B I *C 68.005 40.455 *L 0.00167 *D NAND2XL

*CAP
1 *219:2 0.000132542
2 *219:4 0.00014911
3 *219:5 6.62712e-05
4 *219:6 4.97034e-05
5 *219:7 0.000121584
6 *219:8 0.000191061
7 *219:10 0.000138953
8 *219:11 0.000121584
9 *219:12 5.21074e-05

*RES
1 *219:12 *794:B 1.4
2 *219:11 *219:12 0.372849
3 *219:10 *219:11 0.497132
4 *219:8 *219:10 0.497132
5 *219:8 *795:Y 1.4
6 *219:7 *219:8 0.86998
7 *219:6 *219:7 1.4
8 *219:5 *219:6 0.372849
9 *219:4 *219:5 0.124283
10 *219:2 *219:4 0.994264
11 *219:1 *785:B 1.4
12 *219:1 *219:2 1.4
13 *219:0 *219:1 0.03
*END

*D_NET *220 0.00149094

*CONN
*I *793:Y O *C 66.845 24.505 *L 0 *D NOR2XL
*I *725:A I *C 67.565 16.8 *L 0.00668 *D ADDFXL

*CAP
1 *220:1 1.63285e-05
2 *220:3 1.63285e-05
3 *220:4 0.000320932
4 *220:5 0.000320932
5 *220:6 0.000408212
6 *220:7 0.000408212

*RES
1 *220:7 *725:A 1.4
2 *220:6 *220:7 3.10722
3 *220:5 *220:6 1.4
4 *220:4 *220:5 2.48566
5 *220:3 *220:4 1.4
6 *220:1 *220:3 0.124289
7 *220:1 *793:Y 1.4
8 *220:0 *220:1 0.212143
*END

*D_NET *221 0.00157695

*CONN
*I *792:Y O *C 53.795 27.695 *L 0 *D NOR2XL
*I *731:A I *C 51.905 16.8 *L 0.00668 *D ADDFXL

*CAP
1 *792:Y 6.62712e-05
2 *221:1 6.62712e-05
3 *221:2 0.000544564
4 *221:3 0.000544564
5 *221:4 0.000112326
6 *221:5 0.000112326
7 *221:6 6.53139e-05
8 *221:7 6.53139e-05

*RES
1 *221:7 *731:A 1.4
2 *221:6 *221:7 0.497155
3 *221:5 *221:6 1.4
4 *221:4 *221:5 0.869981
5 *221:3 *221:4 1.4
6 *221:2 *221:3 4.1015
7 *221:1 *221:2 1.4
8 *792:Y *221:1 0.497132
*END

*D_NET *222 0.00193606

*CONN
*I *791:Y O *C 41.905 32.915 *L 0 *D NOR2XL
*I *724:A I *C 46.975 27.24 *L 0.00668 *D ADDFXL

*CAP
1 *222:0 0.000138061
2 *222:1 0.000120803
3 *222:2 0.000172576
4 *222:4 0.000155318
5 *222:5 0.000138407
6 *222:6 0.000155708
7 *222:7 0.00019031
8 *222:8 0.00019031
9 *222:9 5.19028e-05
10 *222:10 5.19028e-05
11 *222:11 0.000259514
12 *222:12 0.000242213
13 *222:13 3.45151e-05
14 *222:14 3.45151e-05

*RES
1 *222:14 *724:A 1.4
2 *222:13 *222:14 0.248567
3 *222:12 *222:13 1.4
4 *222:11 *222:12 1.73996
5 *222:10 *222:11 0.124283
6 *222:9 *222:10 0.248566
7 *222:8 *222:9 0.124283
8 *222:7 *222:8 1.24283
9 *222:6 *222:7 0.124283
10 *222:5 *222:6 0.994263
11 *222:4 *222:5 1.4
12 *222:2 *222:4 1.11855
13 *222:1 *791:Y 1.4
14 *222:0 *222:2 0.124283
15 *222:0 *222:1 0.869984
*END

*D_NET *223 0.000894661

*CONN
*I *790:Y O *C 68.005 32.915 *L 0 *D NOR2XL
*I *728:A I *C 70.465 32.46 *L 0.00668 *D ADDFXL

*CAP
1 *223:2 3.31356e-05
2 *223:3 0.000231949
3 *790:Y 3.31356e-05
4 *223:5 0.000248517
5 *223:6 0.000182246
6 *223:7 0.000165678

*RES
1 *223:8 *728:A 1.4
2 *223:8 *223:9 0.220714
3 *223:7 *223:8 1.4
4 *223:6 *223:7 1.24283
5 *223:5 *223:6 0.124283
6 *223:3 *223:5 1.73996
7 *223:2 *790:Y 0.248566
8 *223:1 *223:3 1.4
9 *223:1 *223:2 1.4
10 *223:0 *223:1 0.220714
*END

*D_NET *224 0.00254152

*CONN
*I *789:Y O *C 56.695 27.695 *L 0 *D NOR2XL
*I *730:A I *C 60.605 14.52 *L 0.00668 *D ADDFXL

*CAP
1 *789:Y 0.000463898
2 *224:1 0.000463898
3 *224:2 8.68457e-05
4 *224:3 0.000104215
5 *224:4 0.000524072
6 *224:5 0.000523032
7 *224:6 4.89854e-05
8 *224:7 4.89854e-05
9 *224:8 0.000146956
10 *224:9 0.000130628

*RES
1 *224:9 *730:A 1.4
2 *224:8 *224:9 0.99431
3 *224:7 *224:8 0.124289
4 *224:6 *224:7 0.248577
5 *224:5 *224:6 0.124289
6 *224:4 *224:5 3.85295
7 *224:3 *224:4 0.124283
8 *224:2 *224:3 0.621415
9 *224:1 *224:2 1.4
10 *789:Y *224:1 3.47992
*END

*D_NET *225 0.000829993

*CONN
*I *788:Y O *C 65.975 27.695 *L 0 *D NOR2XL
*I *732:A I *C 67.855 27.24 *L 0.00668 *D ADDFXL

*CAP
1 *225:3 0.000397627
2 *225:4 0.000397627
3 *225:5 1.73691e-05
4 *225:6 1.73691e-05

*RES
1 *225:6 *732:A 1.4
2 *225:6 *225:7 0.0878571
3 *225:5 *225:6 0.124283
4 *225:4 *225:5 1.4
5 *225:3 *225:4 2.98279
6 *225:1 *225:3 1.4
7 *225:1 *788:Y 1.4
8 *225:0 *225:1 0.03
*END

*D_NET *226 0.00260924

*CONN
*I *794:Y O *C 68.005 41.035 *L 0 *D NAND2XL
*I *718:A I *C 70.755 30.18 *L 0.00668 *D ADDFXL
*I *787:A I *C 79.315 32.335 *L 0.00273 *D INVX1

*CAP
1 *226:0 0.000104215
2 *226:1 0.000104215
3 *226:2 0.000381059
4 *226:4 0.000381059
5 *226:5 0.000451598
6 *226:6 0.000503705
7 *226:7 0.000104215
8 *226:8 0.000187421
9 *226:9 5.21074e-05
10 *226:10 0.000187421
11 *226:12 7.61121e-05
12 *226:13 7.61121e-05

*RES
1 *226:13 *787:A 1.4
2 *226:12 *226:13 0.621415
3 *226:10 *226:12 1.4
4 *226:9 *718:A 1.4
5 *226:8 *226:10 1.4914
6 *226:7 *226:9 0.372849
7 *226:7 *226:8 1.4
8 *226:6 *226:7 0.372849
9 *226:5 *226:6 3.23136
10 *226:4 *226:5 1.4
11 *226:2 *226:4 2.85851
12 *226:1 *794:Y 1.4
13 *226:0 *226:2 1.4
14 *226:0 *226:1 0.745697
*END

*D_NET *227 0.000967979

*CONN
*I *787:Y O *C 79.6875 32.335 *L 0 *D INVX1
*I *728:B I *C 72.065 32.915 *L 0.00615 *D ADDFXL

*CAP
1 *227:3 0.000184166
2 *227:4 0.000200734
3 *227:5 0.000198814
4 *227:6 0.000198814
5 *227:7 6.62712e-05
6 *227:8 4.97034e-05
7 *227:9 3.47383e-05
8 *227:10 3.47383e-05

*RES
1 *227:10 *728:B 1.4
2 *227:9 *227:10 0.248566
3 *227:8 *227:9 1.4
4 *227:7 *227:8 0.372849
5 *227:6 *227:7 0.124283
6 *227:5 *227:6 1.36711
7 *227:4 *227:5 0.124283
8 *227:3 *227:4 1.4914
9 *227:1 *227:3 1.4
10 *227:1 *787:Y 1.4
11 *227:0 *227:1 0.220714
*END

*D_NET *228 0.00062214

*CONN
*I *786:Y O *C 45.095 27.695 *L 0 *D NOR2XL
*I *721:A I *C 42.915 30.18 *L 0.00668 *D ADDFXL

*CAP
1 *228:3 0.000173009
2 *228:4 0.000173009
3 *228:5 0.000138061
4 *228:6 0.000138061

*RES
1 *228:6 *721:A 1.4
2 *228:5 *228:6 0.994267
3 *228:4 *228:5 1.4
4 *228:3 *228:4 1.24283
5 *228:1 *228:3 1.4
6 *228:1 *786:Y 1.4
7 *228:0 *228:1 0.220714
*END

*D_NET *229 0.00107316

*CONN
*I *785:Y O *C 70.035 42.485 *L 0 *D NAND2XL
*I *694:A I *C 72.205 40.62 *L 0.00668 *D ADDFXL

*CAP
1 *229:0 3.47383e-05
2 *229:1 3.47383e-05
3 *229:2 0.000397627
4 *229:4 0.000397627
5 *229:5 0.000104215
6 *229:6 0.000104215

*RES
1 *229:6 *694:A 1.4
2 *229:5 *229:6 0.745697
3 *229:4 *229:5 1.4
4 *229:2 *229:4 2.98279
5 *229:1 *785:Y 1.4
6 *229:0 *229:2 1.4
7 *229:0 *229:1 0.248566
*END

*D_NET *230 0.00337381

*CONN
*I *740:A I *C 39.295 14.645 *L 0.00162 *D NOR2XL
*I *737:A I *C 34.365 14.065 *L 0.00183 *D CLKXOR2X1
*I *784:Y O *C 42.485 35.815 *L 0 *D OAI21X1

*CAP
1 *230:2 0.000294509
2 *230:4 0.000557999
3 *230:5 0.000294509
4 *230:6 0.000557999
5 *230:7 3.1e-05
6 *230:8 5.19722e-05
7 *230:9 3.1e-05
8 *230:10 5.19722e-05
9 *230:12 4.64999e-05
10 *230:13 6.19999e-05
11 *230:14 0.000221712
12 *230:15 0.00022347
13 *230:16 0.000258864
14 *230:17 0.000379667
15 *230:18 0.000224348
16 *230:19 8.62879e-05

*RES
1 *230:19 *784:Y 1.4
2 *230:18 *230:19 0.621417
3 *230:17 *230:18 0.994267
4 *230:16 *230:17 1.73997
5 *230:15 *230:16 0.124283
6 *230:14 *230:15 1.4914
7 *230:13 *230:14 0.124283
8 *230:12 *230:13 0.37285
9 *230:10 *230:12 1.4
10 *230:9 *737:A 1.4
11 *230:8 *230:10 0.372849
12 *230:7 *230:9 0.248567
13 *230:6 *230:8 1.4
14 *230:5 *230:7 1.4
15 *230:4 *230:6 4.4742
16 *230:2 *230:5 2.11281
17 *230:2 *230:4 1.4
18 *230:1 *740:A 1.4
19 *230:1 *230:2 1.4
20 *230:0 *230:1 0.220714
*END

*D_NET *231 0.00280327

*CONN
*I *735:A I *C 22.765 17.255 *L 0.00183 *D CLKXOR2X1
*I *741:A I *C 21.315 14.645 *L 0.00162 *D NOR2XL
*I *783:Y O *C 30.885 30.595 *L 0 *D OAI21X1

*CAP
1 *231:1 7.84092e-05
2 *231:2 0.000109773
3 *231:3 7.60047e-05
4 *231:5 0.0001725
5 *231:6 7.60047e-05
6 *231:7 0.000141136
7 *231:8 0.000141136
8 *231:9 3.04019e-05
9 *231:10 0.000141136
10 *231:11 7.60047e-05
11 *231:13 6.08038e-05
12 *231:14 0.000330558
13 *231:15 0.000332681
14 *231:16 6.92962e-05
15 *231:17 5.19722e-05
16 *231:18 0.000354181
17 *231:19 0.000371439
18 *231:20 0.000103545
19 *231:21 8.62879e-05

*RES
1 *231:21 *783:Y 1.4
2 *231:20 *231:21 0.621417
3 *231:19 *231:20 0.124283
4 *231:18 *231:19 2.73424
5 *231:17 *231:18 1.4
6 *231:16 *231:17 0.372849
7 *231:15 *231:16 0.124283
8 *231:14 *231:15 2.36141
9 *231:13 *231:14 0.124289
10 *231:11 *231:13 0.372866
11 *231:10 *741:A 1.4
12 *231:9 *231:11 0.248578
13 *231:8 *231:10 1.1186
14 *231:7 *231:9 1.4
15 *231:6 *231:8 1.4
16 *231:5 *231:7 1.1186
17 *231:3 *231:6 0.621444
18 *231:2 *231:5 0.248578
19 *231:1 *735:A 1.4
20 *231:1 *231:3 1.4
21 *231:1 *231:2 0.621444
22 *231:0 *231:1 0.220714
*END

*D_NET *232 0.00154617

*CONN
*I *738:A I *C 11.165 21.895 *L 0.00162 *D NOR2XL
*I *736:A I *C 8.555 22.475 *L 0.00183 *D CLKXOR2X1
*I *782:Y O *C 14.355 26.825 *L 0 *D OAI21X1

*CAP
1 *232:1 1.56818e-05
2 *232:2 1.56818e-05
3 *232:4 0.000106407
4 *232:5 0.000106407
5 *232:6 3.13637e-05
6 *232:7 7.84092e-05
7 *232:8 0.000219546
8 *232:9 0.0001725
9 *232:11 4.56028e-05
10 *232:12 6.08038e-05
11 *232:13 0.000228014
12 *232:14 0.000228014
13 *232:15 6.08038e-05
14 *232:16 4.56028e-05
15 *232:17 6.56688e-05
16 *232:18 6.56688e-05

*RES
1 *232:18 *782:Y 1.4
2 *232:17 *232:18 0.497155
3 *232:16 *232:17 1.4
4 *232:15 *232:16 0.372866
5 *232:14 *232:15 0.124289
6 *232:13 *232:14 1.74004
7 *232:12 *232:13 0.124289
8 *232:11 *232:12 0.372866
9 *232:9 *232:11 1.4
10 *232:8 *736:A 1.4
11 *232:8 *232:9 1.36718
12 *232:7 *232:8 0.372866
13 *232:6 *232:7 0.248578
14 *232:5 *232:6 1.4
15 *232:4 *232:5 0.870021
16 *232:2 *232:4 1.4
17 *232:1 *738:A 1.4
18 *232:1 *232:2 0.124289
19 *232:0 *232:1 0.212143
*END

*D_NET *233 0.00164666

*CONN
*I *742:A I *C 48.865 14.355 *L 0.00157 *D NAND2XL
*I *734:A0 I *C 50.315 14.645 *L 0.00271 *D OAI21X1
*I *781:Y O *C 49.155 25.375 *L 0 *D NAND2XL

*CAP
1 *233:2 8.66203e-05
2 *233:4 0.000121268
3 *233:5 0.000103944
4 *233:7 6.92962e-05
5 *233:10 0.000511499
6 *233:11 0.000511499
7 *233:12 0.000121268
8 *781:Y 0.000121268

*RES
1 *233:12 *781:Y 0.86998
2 *233:11 *233:12 1.4
3 *233:10 *233:11 4.10135
4 *233:7 *233:10 1.4
5 *233:6 *734:A0 1.4
6 *233:6 *233:8 0.220714
7 *233:5 *233:7 0.497132
8 *233:4 *233:6 1.4
9 *233:4 *233:5 0.248566
10 *233:2 *233:4 0.621415
11 *233:1 *742:A 1.4
12 *233:1 *233:2 1.4
13 *233:0 *233:1 0.220714
*END

*D_NET *234 0.00139868

*CONN
*I *778:Y O *C 37.845 13.775 *L 0 *D OAI22X1
*I *720:A I *C 42.335 11.58 *L 0.00668 *D ADDFXL

*CAP
1 *234:1 1.55e-05
2 *234:2 1.55e-05
3 *234:3 8.66203e-05
4 *234:5 0.000103944
5 *234:6 0.000311833
6 *234:7 0.000311833
7 *234:8 0.000207889
8 *234:9 0.000190565
9 *234:10 7.74999e-05
10 *234:11 7.74999e-05

*RES
1 *234:11 *720:A 1.4
2 *234:10 *234:11 0.621417
3 *234:9 *234:10 1.4
4 *234:8 *234:9 1.36711
5 *234:7 *234:8 0.124283
6 *234:6 *234:7 2.11281
7 *234:5 *234:6 0.124283
8 *234:3 *234:5 0.621415
9 *234:2 *778:Y 1.4
10 *234:1 *234:3 1.4
11 *234:1 *234:2 0.124283
12 *234:0 *234:1 0.0878571
*END

*D_NET *235 0.000868018

*CONN
*I *715:A I *C 23.775 14.52 *L 0.00668 *D ADDFXL
*I *777:Y O *C 33.785 17.545 *L 0 *D OAI22X1

*CAP
1 *235:1 4.64999e-05
2 *235:2 4.64999e-05
3 *235:3 0.000294509
4 *235:4 0.000294509
5 *235:5 9.29999e-05
6 *235:6 9.29999e-05

*RES
1 *235:6 *777:Y 1.4
2 *235:5 *235:6 0.7457
3 *235:4 *235:5 1.4
4 *235:3 *235:4 2.11281
5 *235:2 *235:3 1.4
6 *235:1 *235:2 0.37285
7 *715:A *235:1 1.4
*END

*D_NET *236 0.000998835

*CONN
*I *776:Y O *C 63.075 20.155 *L 0 *D OAI21X1
*I *725:B I *C 69.165 17.255 *L 0.00615 *D ADDFXL

*CAP
1 *236:3 0.000112326
2 *236:4 0.000160466
3 *236:5 0.000272792
4 *236:6 0.000224652
5 *236:7 0.000114299
6 *236:8 0.000114299

*RES
1 *236:8 *725:B 1.4
2 *236:7 *236:8 0.870021
3 *236:6 *236:7 1.4
4 *236:5 *236:6 1.73996
5 *236:4 *236:5 0.372849
6 *236:3 *236:4 0.869981
7 *236:1 *236:3 1.4
8 *236:1 *776:Y 1.4
9 *236:0 *236:1 0.220714
*END

*D_NET *237 0.000925112

*CONN
*I *775:Y O *C 70.325 35.815 *L 0 *D OAI21X1
*I *718:B I *C 72.355 29.725 *L 0.00615 *D ADDFXL

*CAP
1 *237:0 8.68457e-05
2 *237:1 8.68457e-05
3 *237:2 0.000132542
4 *237:4 0.000132542
5 *237:5 0.000225799
6 *237:6 0.000243168
7 *237:7 1.73691e-05

*RES
1 *237:7 *718:B 1.4
2 *237:6 *237:7 0.124283
3 *237:5 *237:6 1.61568
4 *237:4 *237:5 1.4
5 *237:2 *237:4 0.994264
6 *237:1 *775:Y 1.4
7 *237:0 *237:2 1.4
8 *237:0 *237:1 0.621415
*END

*D_NET *238 0.000248

*CONN
*I *720:B I *C 43.935 12.035 *L 0.00615 *D ADDFXL
*I *774:Y O *C 44.805 13.775 *L 0 *D OAI22X1

*CAP
1 *238:1 4.64999e-05
2 *238:2 0.000124
3 *238:3 7.74999e-05

*RES
1 *238:3 *774:Y 1.4
2 *238:2 *238:3 0.621417
3 *238:1 *238:2 0.37285
4 *720:B *238:1 1.4
*END

*D_NET *239 0.00115615

*CONN
*I *722:A I *C 34.795 11.58 *L 0.00668 *D ADDFXL
*I *773:Y O *C 32.335 13.775 *L 0 *D OAI22X1

*CAP
1 *239:2 5.19722e-05
2 *239:4 6.92962e-05
3 *239:5 0.000207889
4 *239:6 0.000207889
5 *239:7 0.000225213
6 *239:8 0.000207889
7 *239:9 9.29999e-05
8 *239:10 9.29999e-05

*RES
1 *239:10 *773:Y 1.4
2 *239:9 *239:10 0.7457
3 *239:8 *239:9 1.4
4 *239:7 *239:8 1.49139
5 *239:6 *239:7 0.124283
6 *239:5 *239:6 1.36711
7 *239:4 *239:5 0.124283
8 *239:2 *239:4 0.372849
9 *239:1 *722:A 1.4
10 *239:1 *239:2 1.4
11 *239:0 *239:1 0.220714
*END

*D_NET *240 0.00359267

*CONN
*I *722:B I *C 36.395 12.035 *L 0.00615 *D ADDFXL
*I *772:Y O *C 45.675 33.205 *L 0 *D OAI22X1

*CAP
1 *240:2 0.000173241
2 *240:4 0.000190565
3 *240:5 0.000415777
4 *240:6 0.000398453
5 *240:7 0.000464999
6 *240:8 0.000495999
7 *240:9 0.000535227
8 *240:10 0.000556
9 *240:11 0.000207091
10 *240:12 0.000155318

*RES
1 *240:12 *772:Y 1.4
2 *240:11 *240:12 1.11855
3 *240:10 *240:11 0.37285
4 *240:9 *240:10 3.85279
5 *240:8 *240:9 0.248567
6 *240:7 *240:8 3.7285
7 *240:6 *240:7 1.4
8 *240:5 *240:6 2.85851
9 *240:4 *240:5 0.124283
10 *240:2 *240:4 1.24283
11 *240:1 *722:B 1.4
12 *240:1 *240:2 1.4
13 *240:0 *240:1 0.220714
*END

*D_NET *241 0.00216368

*CONN
*I *771:Y O *C 57.565 29.435 *L 0 *D OAI22X1
*I *719:A I *C 59.445 16.8 *L 0.00668 *D ADDFXL

*CAP
1 *241:0 0.000419139
2 *241:1 0.000419139
3 *241:2 0.000385118
4 *241:4 0.000385118
5 *241:5 0.000277584
6 *241:6 0.000277584

*RES
1 *241:6 *719:A 1.4
2 *241:5 *241:6 2.11291
3 *241:4 *241:5 1.4
4 *241:2 *241:4 2.98279
5 *241:1 *771:Y 1.4
6 *241:0 *241:2 1.4
7 *241:0 *241:1 3.10716
*END

*D_NET *242 0.00194926

*CONN
*I *731:B I *C 53.505 17.255 *L 0.00615 *D ADDFXL
*I *770:Y O *C 54.955 33.205 *L 0 *D OAI22X1

*CAP
1 *242:1 0.000342898
2 *242:2 0.000359227
3 *242:3 0.000197503
4 *242:4 0.000198543
5 *242:5 0.000121584
6 *242:6 0.000138953
7 *242:7 0.000225799
8 *242:8 0.00020843
9 *242:9 8.68457e-05
10 *242:10 6.94766e-05

*RES
1 *242:10 *770:Y 1.4
2 *242:9 *242:10 0.497132
3 *242:8 *242:9 0.124283
4 *242:7 *242:8 1.36711
5 *242:6 *242:7 0.248566
6 *242:5 *242:6 0.745697
7 *242:4 *242:5 0.124283
8 *242:3 *242:4 1.36717
9 *242:2 *242:3 0.124289
10 *242:1 *242:2 2.61006
11 *731:B *242:1 1.4
*END

*D_NET *243 0.00123663

*CONN
*I *769:Y O *C 49.155 17.545 *L 0 *D OAI22X1
*I *717:A I *C 49.875 11.58 *L 0.00668 *D ADDFXL

*CAP
1 *243:0 0.000186
2 *243:1 0.000186
3 *243:2 0.000334345
4 *243:4 0.000334345
5 *243:5 9.79709e-05
6 *243:6 9.79709e-05

*RES
1 *243:6 *717:A 1.4
2 *243:5 *243:6 0.745732
3 *243:4 *243:5 1.4
4 *243:2 *243:4 2.48566
5 *243:1 *769:Y 1.4
6 *243:0 *243:2 1.4
7 *243:0 *243:1 1.4914
*END

*D_NET *244 0.000668842

*CONN
*I *716:B I *C 7.975 19.285 *L 0.00625 *D ADDFX1
*I *768:Y O *C 13.485 18.995 *L 0 *D OAI22X1

*CAP
1 *244:2 4.56028e-05
2 *244:4 6.08038e-05
3 *244:5 0.000197612
4 *244:6 0.000197612
5 *244:7 4.56028e-05
6 *244:8 4.56028e-05
7 *244:9 4.56028e-05
8 *244:10 3.04019e-05

*RES
1 *244:11 *244:13 0.220714
2 *244:11 *768:Y 1.4
3 *244:10 *244:11 1.4
4 *244:9 *244:10 0.248578
5 *244:8 *244:9 0.124289
6 *244:7 *244:8 0.248578
7 *244:6 *244:7 0.124289
8 *244:5 *244:6 1.49146
9 *244:4 *244:5 0.124289
10 *244:2 *244:4 0.372866
11 *244:1 *716:B 1.4
12 *244:1 *244:2 1.4
13 *244:0 *244:1 0.220714
*END

*D_NET *245 0.000743999

*CONN
*I *722:CI I *C 36.105 11.165 *L 0.00486 *D ADDFXL
*I *767:Y O *C 37.265 17.545 *L 0 *D OAI22X1

*CAP
1 *245:1 0.000124
2 *245:2 0.000155
3 *245:3 0.0001705
4 *245:4 0.0001705
5 *245:5 7.74999e-05
6 *245:6 4.64999e-05

*RES
1 *245:6 *767:Y 1.4
2 *245:5 *245:6 0.37285
3 *245:4 *245:5 0.248567
4 *245:3 *245:4 1.11855
5 *245:2 *245:3 0.248567
6 *245:1 *245:2 0.994267
7 *722:CI *245:1 1.4
*END

*D_NET *246 0.000402999

*CONN
*I *766:Y O *C 26.535 18.995 *L 0 *D OAI22X1
*I *723:CI I *C 27.985 16.385 *L 0.00486 *D ADDFXL

*CAP
1 *246:0 0.0002015
2 *246:1 0.000124
3 *246:2 7.74999e-05

*RES
1 *246:2 *723:CI 1.4
2 *246:1 *766:Y 1.4
3 *246:0 *246:2 0.621417
4 *246:0 *246:1 0.994267
*END

*D_NET *247 0.00123242

*CONN
*I *765:Y O *C 43.935 16.965 *L 0 *D AO22X1
*I *731:CI I *C 53.215 16.385 *L 0.00486 *D ADDFXL

*CAP
1 *247:3 0.000311833
2 *247:4 0.000329157
3 *247:5 0.00025539
4 *247:6 0.000238066
5 *247:7 4.89854e-05
6 *247:8 4.89854e-05

*RES
1 *247:8 *731:CI 1.4
2 *247:7 *247:8 0.372866
3 *247:6 *247:7 1.4
4 *247:5 *247:6 1.73996
5 *247:4 *247:5 0.124283
6 *247:3 *247:4 2.23709
7 *247:1 *247:3 1.4
8 *247:1 *765:Y 1.4
9 *247:0 *247:1 0.03
*END

*D_NET *248 0.00069143

*CONN
*I *721:CI I *C 44.225 30.595 *L 0.00486 *D ADDFXL
*I *764:Y O *C 47.995 33.205 *L 0 *D OAI22X1

*CAP
1 *248:1 3.45151e-05
2 *248:2 3.45151e-05
3 *248:3 0.000224912
4 *248:4 0.000224912
5 *248:5 8.62879e-05
6 *248:6 8.62879e-05

*RES
1 *248:6 *764:Y 1.4
2 *248:5 *248:6 0.621417
3 *248:4 *248:5 1.4
4 *248:3 *248:4 1.61568
5 *248:2 *248:3 1.4
6 *248:1 *248:2 0.248567
7 *721:CI *248:1 1.4
*END

*D_NET *249 0.00172236

*CONN
*I *762:A I *C 56.405 9.425 *L 0.00273 *D INVX1
*I *780:Y O *C 56.695 18.995 *L 0 *D OAI22X1
*I *719:B I *C 61.045 17.255 *L 0.00615 *D ADDFXL

*CAP
1 *249:1 0.000522511
2 *249:2 0.00053884
3 *249:3 1.63285e-05
4 *249:5 0.000240699
5 *249:6 0.000240699
6 *249:7 8.16424e-05
7 *249:8 8.16424e-05

*RES
1 *249:8 *719:B 1.4
2 *249:7 *249:8 0.621444
3 *249:6 *249:7 1.4
4 *249:5 *249:6 1.86425
5 *249:3 *249:5 1.4
6 *249:3 *780:Y 1.4
7 *249:2 *249:3 0.124289
8 *249:1 *249:2 3.97724
9 *762:A *249:1 1.4
*END

*D_NET *250 0.000718453

*CONN
*I *762:Y O *C 56.7775 9.425 *L 0 *D INVX1
*I *714:A I *C 53.065 14.52 *L 0.00668 *D ADDFXL

*CAP
1 *250:1 4.89854e-05
2 *250:2 8.16424e-05
3 *250:3 0.000228599
4 *250:4 0.000244927
5 *250:5 8.16424e-05
6 *250:6 3.2657e-05

*RES
1 *250:6 *714:A 1.4
2 *250:5 *250:6 0.248577
3 *250:4 *250:5 0.372866
4 *250:3 *250:4 1.49146
5 *250:2 *250:3 0.248577
6 *250:1 *250:2 0.372866
7 *762:Y *250:1 1.4
*END

*D_NET *251 0.00324368

*CONN
*I *711:A I *C 70.465 24.96 *L 0.00668 *D ADDFXL
*I *779:Y O *C 65.685 33.205 *L 0 *D OAI22X1
*I *761:A I *C 70.035 14.645 *L 0.00273 *D INVX1

*CAP
1 *251:2 0.000304885
2 *251:4 0.000304885
3 *251:5 0.000719296
4 *251:6 0.000360069
5 *251:7 0.000375555
6 *251:8 0.000248517
7 *251:9 0.000179613
8 *251:10 0.000248517
9 *251:11 0.000179613
10 *251:12 0.000104215
11 *251:13 6.53139e-05
12 *251:14 0.000104215
13 *251:15 4.89854e-05

*RES
1 *251:15 *761:A 1.4
2 *251:14 *779:Y 1.4
3 *251:13 *251:15 0.372866
4 *251:12 *251:14 0.745697
5 *251:11 *251:13 0.124289
6 *251:10 *251:12 1.4
7 *251:9 *251:11 1.24289
8 *251:8 *251:10 1.86424
9 *251:7 *251:9 0.124289
10 *251:6 *251:8 1.4
11 *251:5 *251:7 2.73435
12 *251:5 *251:6 2.60997
13 *251:4 *251:5 1.4
14 *251:2 *251:4 2.36138
15 *251:1 *711:A 1.4
16 *251:1 *251:2 1.4
17 *251:0 *251:1 0.220714
*END

*D_NET *252 0.000356408

*CONN
*I *725:CI I *C 68.875 16.385 *L 0.00486 *D ADDFXL
*I *761:Y O *C 70.4075 14.645 *L 0 *D INVX1

*CAP
1 *252:2 8.0233e-05
2 *252:4 8.0233e-05
3 *252:5 9.79709e-05
4 *252:6 9.79709e-05

*RES
1 *252:6 *761:Y 1.4
2 *252:5 *252:6 0.745732
3 *252:4 *252:5 1.4
4 *252:2 *252:4 0.621415
5 *252:1 *725:CI 1.4
6 *252:1 *252:2 1.4
7 *252:0 *252:1 0.220714
*END

*D_NET *253 0.00180898

*CONN
*I *763:Y O *C 39.875 16.385 *L 0 *D AOI22X1
*I *742:B I *C 49.445 14.355 *L 0.00167 *D NAND2XL
*I *734:A1 I *C 50.605 14.355 *L 0.00274 *D OAI21X1

*CAP
1 *253:3 5.19722e-05
2 *253:4 6.92962e-05
3 *253:5 0.000155917
4 *253:6 0.000155917
5 *253:7 0.000207889
6 *253:8 0.000207889
7 *253:9 0.000207889
8 *253:10 0.000207889
9 *253:11 1.73241e-05
10 *253:12 0.0001085
11 *253:13 0.000155
12 *253:14 0.0001085
13 *253:16 0.0001085
14 *253:17 4.64999e-05

*RES
1 *253:17 *734:A1 1.4
2 *253:16 *253:17 0.37285
3 *253:14 *253:16 0.497134
4 *253:13 *742:B 1.4
5 *253:13 *253:14 0.37285
6 *253:12 *253:13 0.869984
7 *253:11 *253:12 1.4
8 *253:10 *253:11 0.124283
9 *253:9 *253:10 1.36711
10 *253:8 *253:9 0.124283
11 *253:7 *253:8 1.36711
12 *253:6 *253:7 0.124283
13 *253:5 *253:6 0.994263
14 *253:4 *253:5 0.124283
15 *253:3 *253:4 0.372849
16 *253:1 *253:3 1.4
17 *253:1 *763:Y 1.4
18 *253:0 *253:1 0.220714
*END

*D_NET *254 0.00191863

*CONN
*I *723:B I *C 28.275 17.255 *L 0.00615 *D ADDFXL
*I *760:Y O *C 28.855 33.205 *L 0 *D OAI22X1

*CAP
1 *254:1 3.1e-05
2 *254:2 7.74999e-05
3 *254:3 0.000703969
4 *254:4 0.000691984
5 *254:5 0.000103545
6 *254:6 8.62879e-05
7 *254:7 0.000120803
8 *254:8 0.000103545

*RES
1 *254:8 *760:Y 1.4
2 *254:7 *254:8 0.7457
3 *254:6 *254:7 0.124283
4 *254:5 *254:6 0.497134
5 *254:4 *254:5 0.248567
6 *254:3 *254:4 5.09562
7 *254:2 *254:3 0.37285
8 *254:1 *254:2 0.248567
9 *723:B *254:1 1.4
*END

*D_NET *255 0.00104215

*CONN
*I *759:Y O *C 67.425 34.655 *L 0 *D OAI22X1
*I *732:B I *C 69.455 27.695 *L 0.00615 *D ADDFXL

*CAP
1 *255:0 8.68457e-05
2 *255:1 5.21074e-05
3 *255:2 0.00020843
4 *255:4 0.000225799
5 *255:5 0.000225799
6 *255:6 0.00020843
7 *255:7 3.47383e-05

*RES
1 *255:7 *732:B 1.4
2 *255:6 *255:7 0.248566
3 *255:5 *255:6 1.24283
4 *255:4 *255:5 0.372849
5 *255:2 *255:4 1.24283
6 *255:1 *759:Y 1.4
7 *255:0 *255:2 0.248566
8 *255:0 *255:1 0.372849
*END

*D_NET *256 0.000844571

*CONN
*I *730:B I *C 62.205 14.065 *L 0.00615 *D ADDFXL
*I *758:Y O *C 59.305 18.995 *L 0 *D OAI22X1

*CAP
1 *256:2 0.000128373
2 *256:4 0.000128373
3 *256:5 3.2657e-05
4 *256:6 6.53139e-05
5 *256:7 0.000261256
6 *256:8 0.000228599

*RES
1 *256:8 *758:Y 1.4
2 *256:7 *256:8 1.74004
3 *256:6 *256:7 0.248577
4 *256:5 *256:6 0.248577
5 *256:4 *256:5 1.4
6 *256:2 *256:4 0.994264
7 *256:1 *730:B 1.4
8 *256:1 *256:2 1.4
9 *256:0 *256:1 0.220714
*END

*D_NET *257 0.00153716

*CONN
*I *727:A I *C 6.815 27.115 *L 0.00666 *D ADDFX1
*I *757:Y O *C 19.575 33.205 *L 0 *D OAI22X1

*CAP
1 *257:1 5.05753e-05
2 *257:2 5.05753e-05
3 *257:3 0.000381789
4 *257:4 0.000381789
5 *257:5 0.000286593
6 *257:6 0.00032031
7 *257:7 3.37169e-05
8 *257:8 1.59079e-05
9 *757:Y 1.59079e-05

*RES
1 *257:8 *757:Y 0.124289
2 *257:7 *257:8 1.4
3 *257:6 *257:7 0.248578
4 *257:5 *257:6 2.11291
5 *257:4 *257:5 1.4
6 *257:3 *257:4 2.98293
7 *257:2 *257:3 1.4
8 *257:1 *257:2 0.372866
9 *727:A *257:1 1.4
*END

*D_NET *258 0.00149523

*CONN
*I *756:Y O *C 19.575 17.545 *L 0 *D OAI22X1
*I *726:A I *C 22.615 11.58 *L 0.00668 *D ADDFXL

*CAP
1 *258:0 7.84092e-05
2 *258:1 7.84092e-05
3 *258:2 4.56028e-05
4 *258:4 6.08038e-05
5 *258:5 0.000212813
6 *258:6 0.000212813
7 *258:7 0.000209289
8 *258:8 0.000194088
9 *258:9 0.0002015
10 *258:10 0.0002015

*RES
1 *258:10 *726:A 1.4
2 *258:9 *258:10 1.61568
3 *258:8 *258:9 1.4
4 *258:7 *258:8 1.49143
5 *258:6 *258:7 0.124289
6 *258:5 *258:6 1.61575
7 *258:4 *258:5 0.124289
8 *258:2 *258:4 0.372866
9 *258:1 *756:Y 1.4
10 *258:0 *258:2 1.4
11 *258:0 *258:1 0.621444
*END

*D_NET *259 0.00172362

*CONN
*I *726:B I *C 24.215 12.035 *L 0.00615 *D ADDFXL
*I *755:Y O *C 31.755 18.995 *L 0 *D OAI22X1

*CAP
1 *259:0 7.84092e-05
2 *259:1 6.27273e-05
3 *259:2 0.000250909
4 *259:3 4.56028e-05
5 *259:4 0.000235227
6 *259:5 6.08038e-05
7 *259:7 0.000144239
8 *259:8 0.000146363
9 *259:9 0.000207889
10 *259:10 0.000207889
11 *259:11 0.000103944
12 *259:12 8.66203e-05
13 *259:13 4.64999e-05
14 *259:14 4.64999e-05

*RES
1 *259:14 *755:Y 1.4
2 *259:13 *259:14 0.37285
3 *259:12 *259:13 1.4
4 *259:11 *259:12 0.621415
5 *259:10 *259:11 0.124283
6 *259:9 *259:10 1.36711
7 *259:8 *259:9 0.124283
8 *259:7 *259:8 0.99429
9 *259:5 *259:7 0.124289
10 *259:4 *726:B 1.4
11 *259:3 *259:5 0.372866
12 *259:2 *259:4 1.86433
13 *259:1 *259:3 1.4
14 *259:0 *259:2 0.124289
15 *259:0 *259:1 0.497155
*END

*D_NET *260 0.00107371

*CONN
*I *724:B I *C 48.575 27.695 *L 0.00615 *D ADDFXL
*I *754:Y O *C 52.635 33.205 *L 0 *D OAI22X1

*CAP
1 *260:1 5.17727e-05
2 *260:2 5.17727e-05
3 *260:3 0.000224546
4 *260:4 0.000224546
5 *260:5 0.000191061
6 *260:6 0.00020843
7 *260:7 6.94766e-05
8 *260:8 5.21074e-05

*RES
1 *260:8 *754:Y 1.4
2 *260:7 *260:8 0.372849
3 *260:6 *260:7 0.124283
4 *260:5 *260:6 1.36711
5 *260:4 *260:5 1.4
6 *260:3 *260:4 1.61568
7 *260:2 *260:3 1.4
8 *260:1 *260:2 0.37285
9 *724:B *260:1 1.4
*END

*D_NET *261 0.00235163

*CONN
*I *753:Y O *C 31.175 33.205 *L 0 *D OAI22X1
*I *721:B I *C 44.515 29.725 *L 0.00615 *D ADDFXL

*CAP
1 *261:0 0.000155318
2 *261:1 0.000207091
3 *261:2 0.000657435
4 *261:3 5.17727e-05
5 *261:4 0.000674736
6 *261:5 1.73009e-05
7 *261:6 0.000155708
8 *753:Y 1.73009e-05
9 *261:8 0.000155708
10 *261:9 8.65047e-05
11 *261:10 6.92037e-05
12 *261:11 5.17727e-05
13 *261:12 5.17727e-05

*RES
1 *261:12 *721:B 1.4
2 *261:11 *261:12 0.37285
3 *261:10 *261:11 1.4
4 *261:9 *261:10 0.497132
5 *261:8 *261:9 0.124283
6 *261:6 *261:8 0.994263
7 *261:5 *753:Y 0.124283
8 *261:4 *261:6 0.124283
9 *261:3 *261:5 1.4
10 *261:2 *261:4 4.72275
11 *261:1 *261:3 0.37285
12 *261:0 *261:2 1.4
13 *261:0 *261:1 1.11855
*END

*D_NET *262 0.00230026

*CONN
*I *729:B I *C 15.225 14.065 *L 0.00615 *D ADDFXL
*I *752:Y O *C 20.155 29.435 *L 0 *D OAI22X1

*CAP
1 *262:1 1.56818e-05
2 *262:2 1.56818e-05
3 *262:4 0.000258416
4 *262:5 0.000258416
5 *262:6 0.000345
6 *262:7 0.000360682
7 *262:8 0.000463598
8 *262:9 0.000464774
9 *262:10 6.74337e-05
10 *262:11 5.05753e-05

*RES
1 *262:11 *752:Y 1.4
2 *262:10 *262:11 0.372866
3 *262:9 *262:10 0.124289
4 *262:8 *262:9 3.48009
5 *262:7 *262:8 0.124289
6 *262:6 *262:7 2.73435
7 *262:5 *262:6 1.4
8 *262:4 *262:5 2.11291
9 *262:2 *262:4 1.4
10 *262:1 *729:B 1.4
11 *262:1 *262:2 0.124289
12 *262:0 *262:1 0.212143
*END

*D_NET *263 0.00231708

*CONN
*I *750:Y O *C 36.395 32.045 *L 0 *D OAI21X1
*I *724:CI I *C 48.285 26.825 *L 0.00486 *D ADDFXL

*CAP
1 *263:0 5.17727e-05
2 *263:1 6.90303e-05
3 *263:2 5.19028e-05
4 *263:3 0.000258864
5 *263:4 6.92153e-05
6 *263:5 0.000258864
7 *263:6 0.000311822
8 *263:7 6.90303e-05
9 *263:8 0.000311822
10 *263:9 5.17727e-05
11 *263:10 0.000380632
12 *263:12 0.00036332
13 *263:13 3.45151e-05
14 *263:14 3.45151e-05

*RES
1 *263:14 *724:CI 1.4
2 *263:13 *263:14 0.248567
3 *263:12 *263:13 1.4
4 *263:10 *263:12 2.60994
5 *263:9 *750:Y 1.4
6 *263:8 *263:10 0.124283
7 *263:7 *263:9 0.37285
8 *263:6 *263:8 2.11281
9 *263:5 *263:7 0.124283
10 *263:4 *263:6 0.124283
11 *263:3 *263:5 1.73997
12 *263:2 *263:4 0.372849
13 *263:1 *263:3 0.124283
14 *263:0 *263:2 1.4
15 *263:0 *263:1 0.37285
*END

*D_NET *264 0.000313637

*CONN
*I *729:CI I *C 14.935 14.935 *L 0.00486 *D ADDFXL
*I *747:Y O *C 15.805 17.545 *L 0 *D OAI22X1

*CAP
1 *264:1 7.84092e-05
2 *264:2 0.000125455
3 *264:3 7.84092e-05
4 *264:4 3.13637e-05

*RES
1 *264:4 *747:Y 1.4
2 *264:3 *264:4 0.248578
3 *264:2 *264:3 0.372866
4 *264:1 *264:2 0.621444
5 *729:CI *264:1 1.4
*END

*D_NET *265 0.00130884

*CONN
*I *746:Y O *C 70.035 41.035 *L 0 *D OAI21X1
*I *728:CI I *C 71.775 32.045 *L 0.00486 *D ADDFXL

*CAP
1 *265:2 1.65678e-05
2 *265:3 9.94068e-05
3 *746:Y 1.65678e-05
4 *265:5 9.94068e-05
5 *265:6 5.21074e-05
6 *265:7 6.94766e-05
7 *265:8 0.000295275
8 *265:9 0.000312645
9 *265:10 0.000191061
10 *265:11 0.000156322

*RES
1 *265:11 *728:CI 1.4
2 *265:10 *265:11 1.11855
3 *265:9 *265:10 0.248566
4 *265:8 *265:9 1.98853
5 *265:7 *265:8 0.124283
6 *265:6 *265:7 0.372849
7 *265:5 *265:6 1.4
8 *265:3 *265:5 0.745698
9 *265:2 *746:Y 0.124283
10 *265:1 *265:3 1.4
11 *265:1 *265:2 1.4
12 *265:0 *265:1 0.220714
*END

*D_NET *266 0.00204458

*CONN
*I *745:Y O *C 45.675 16.385 *L 0 *D OAI21X1
*I *730:CI I *C 61.915 14.935 *L 0.00486 *D ADDFXL

*CAP
1 *745:Y 5.19722e-05
2 *266:1 5.19722e-05
3 *266:2 6.19999e-05
4 *266:3 6.19999e-05
5 *266:4 0.000859333
6 *266:5 0.000859333
7 *266:6 3.2657e-05
8 *266:7 4.89854e-05
9 *266:8 1.63285e-05

*RES
1 *266:8 *730:CI 1.4
2 *266:7 *266:8 0.124289
3 *266:6 *266:7 0.248577
4 *266:5 *266:6 1.4
5 *266:4 *266:5 6.46272
6 *266:3 *266:4 1.4
7 *266:2 *266:3 0.497134
8 *266:1 *266:2 1.4
9 *745:Y *266:1 0.372849
*END

*D_NET *267 0.00053298

*CONN
*I *732:CI I *C 69.165 26.825 *L 0.00486 *D ADDFXL
*I *744:Y O *C 65.975 25.375 *L 0 *D OAI21X1

*CAP
1 *267:2 0.000182246
2 *267:4 0.000182246
3 *267:5 8.42441e-05
4 *267:6 8.42441e-05

*RES
1 *267:6 *744:Y 1.4
2 *267:5 *267:6 0.621429
3 *267:4 *267:5 1.4
4 *267:2 *267:4 1.36711
5 *267:1 *732:CI 1.4
6 *267:1 *267:2 1.4
7 *267:0 *267:1 0.220714
*END

*D_NET *268 0.0029449

*CONN
*I *751:Y O *C 33.495 32.045 *L 0 *D AOI22X1
*I *737:B I *C 35.815 14.355 *L 0.00363 *D CLKXOR2X1
*I *740:B I *C 39.585 14.355 *L 0.00171 *D NOR2XL

*CAP
1 *268:0 0.000207091
2 *268:1 6.90303e-05
3 *268:2 0.00066306
4 *268:4 0.0005405
5 *268:5 0.0002015
6 *268:6 0.0002015
7 *268:7 0.000186
8 *268:8 0.0002015
9 *268:9 6.19999e-05
10 *268:10 0.000259861
11 *268:11 3.1e-05
12 *268:12 0.000259861
13 *268:14 3.1e-05
14 *268:15 3.1e-05

*RES
1 *268:15 *740:B 1.4
2 *268:14 *268:15 0.248567
3 *268:12 *268:14 1.4
4 *268:11 *737:B 1.4
5 *268:10 *268:12 1.86424
6 *268:9 *268:11 0.248567
7 *268:8 *268:10 1.4
8 *268:8 *268:9 0.248567
9 *268:7 *268:8 1.36712
10 *268:6 *268:7 0.124283
11 *268:5 *268:6 1.4914
12 *268:4 *268:5 0.124283
13 *268:2 *268:4 3.97707
14 *268:1 *751:Y 1.4
15 *268:0 *268:2 0.994267
16 *268:0 *268:1 0.497134
*END

*D_NET *269 0.00246436

*CONN
*I *736:B I *C 10.005 22.185 *L 0.00363 *D CLKXOR2X1
*I *738:B I *C 11.455 22.185 *L 0.00171 *D NOR2XL
*I *749:Y O *C 17.255 32.045 *L 0 *D AOI22X1

*CAP
1 *269:1 3.13637e-05
2 *269:2 0.000203864
3 *269:3 0.000109773
4 *269:4 0.000109773
5 *269:5 0.000531822
6 *269:6 3.13637e-05
7 *269:7 0.000532999
8 *269:9 1.68584e-05
9 *269:10 0.000143171
10 *269:11 0.000159079
11 *269:12 0.000190894
12 *269:13 0.000190894
13 *269:14 6.36315e-05
14 *269:15 4.77236e-05
15 *269:16 5.05753e-05
16 *269:17 5.05753e-05

*RES
1 *269:17 *749:Y 1.4
2 *269:16 *269:17 0.372866
3 *269:15 *269:16 1.4
4 *269:14 *269:15 0.372866
5 *269:13 *269:14 0.124289
6 *269:12 *269:13 1.36718
7 *269:11 *269:12 0.124289
8 *269:10 *269:11 1.1186
9 *269:9 *269:10 1.4
10 *269:7 *269:9 0.124289
11 *269:6 *738:B 1.4
12 *269:5 *269:7 3.85295
13 *269:4 *269:6 0.248578
14 *269:3 *269:5 0.124289
15 *269:2 *269:4 0.621444
16 *269:2 *269:3 0.745733
17 *269:1 *269:2 0.248578
18 *736:B *269:1 1.4
*END

*D_NET *270 0.00243403

*CONN
*I *735:B I *C 24.215 16.965 *L 0.00363 *D CLKXOR2X1
*I *748:Y O *C 25.955 32.045 *L 0 *D AOI22X1
*I *741:B I *C 21.605 14.355 *L 0.00171 *D NOR2XL

*CAP
1 *270:1 0.000376364
2 *270:2 0.000392046
3 *270:3 4.56028e-05
4 *270:5 0.000327168
5 *270:6 6.08038e-05
6 *270:7 0.000395778
7 *270:8 0.000106407
8 *270:9 0.000236018
9 *270:10 9.12057e-05
10 *270:11 0.000151726
11 *270:12 0.000125455
12 *270:14 0.000125455

*RES
1 *270:14 *741:B 1.4
2 *270:12 *270:14 0.99431
3 *270:11 *748:Y 1.4
4 *270:10 *270:12 1.4
5 *270:9 *270:11 1.1186
6 *270:8 *270:10 0.745732
7 *270:7 *270:9 0.621444
8 *270:6 *270:8 0.124289
9 *270:5 *270:7 2.36149
10 *270:3 *270:6 0.372866
11 *270:2 *270:5 0.124289
12 *270:1 *735:B 1.4
13 *270:1 *270:3 1.4
14 *270:1 *270:2 2.98293
15 *270:0 *270:1 0.03
*END

*D_NET *271 0.00110645

*CONN
*I *733:A1 I *C 8.845 35.815 *L 0.00163 *D AOI21XL
*I *739:B I *C 10.295 35.235 *L 0.00171 *D NOR2XL
*I *743:Y O *C 14.935 32.045 *L 0 *D AOI22X1

*CAP
1 *271:2 7.95393e-05
2 *271:4 0.000334065
3 *271:5 0.000254526
4 *271:6 3.37169e-05
5 *271:7 0.000185443
6 *271:8 3.37169e-05
7 *271:9 0.000185443

*RES
1 *271:9 *743:Y 1.4
2 *271:8 *739:B 1.4
3 *271:7 *271:9 1.36718
4 *271:6 *271:8 0.248578
5 *271:5 *271:7 1.4
6 *271:4 *271:6 1.4
7 *271:4 *271:5 1.98862
8 *271:2 *271:4 0.621444
9 *271:1 *733:A1 1.4
10 *271:1 *271:2 1.4
11 *271:0 *271:1 0.220714
*END

*D_NET *272 0.000738708

*CONN
*I *714:B I *C 54.665 14.065 *L 0.00615 *D ADDFXL
*I *734:B0 I *C 51.185 14.645 *L 0.0028 *D OAI21X1
*I *742:Y O *C 49.445 14.935 *L 0 *D NAND2XL

*CAP
1 *272:2 0.00019703
2 *272:4 0.000214354
3 *272:5 1.73241e-05
4 *272:6 3.1e-05
5 *272:7 7.74999e-05
6 *272:9 6.19999e-05
7 *272:10 4.64999e-05
8 *272:11 6.19999e-05
9 *272:12 3.1e-05

*RES
1 *272:12 *742:Y 1.4
2 *272:11 *272:12 0.248567
3 *272:10 *272:11 0.248567
4 *272:9 *272:10 0.124283
5 *272:7 *272:9 0.37285
6 *272:6 *734:B0 1.4
7 *272:6 *272:7 0.248567
8 *272:5 *272:6 1.4
9 *272:4 *272:5 0.124283
10 *272:2 *272:4 1.4914
11 *272:1 *714:B 1.4
12 *272:1 *272:2 1.4
13 *272:0 *272:1 0.220714
*END

*D_NET *273 0.000364823

*CONN
*I *741:Y O *C 21.895 14.065 *L 0 *D NOR2XL
*I *715:B I *C 25.375 14.065 *L 0.00615 *D ADDFXL

*CAP
1 *273:3 0.000182411
2 *273:4 0.000182411

*RES
1 *273:5 *715:B 1.4
2 *273:5 *273:6 0.220714
3 *273:4 *273:5 1.4
4 *273:3 *273:4 1.49146
5 *273:1 *273:3 1.4
6 *273:1 *741:Y 1.4
7 *273:0 *273:1 0.220714
*END

*D_NET *274 0.000760425

*CONN
*I *740:Y O *C 39.875 14.065 *L 0 *D NOR2XL
*I *720:CI I *C 43.645 11.165 *L 0.00486 *D ADDFXL

*CAP
1 *274:0 6.19999e-05
2 *274:1 6.19999e-05
3 *274:2 0.000225213
4 *274:4 0.000225213
5 *274:5 9.29999e-05
6 *274:6 9.29999e-05

*RES
1 *274:6 *720:CI 1.4
2 *274:5 *274:6 0.7457
3 *274:4 *274:5 1.4
4 *274:2 *274:4 1.61568
5 *274:1 *740:Y 1.4
6 *274:0 *274:2 1.4
7 *274:0 *274:1 0.497134
*END

*D_NET *275 0.00125843

*CONN
*I *733:B0 I *C 9.425 35.525 *L 0.00166 *D AOI21XL
*I *739:Y O *C 10.585 34.945 *L 0 *D NOR2XL
*I *727:CI I *C 7.975 26.825 *L 0.00487 *D ADDFX1

*CAP
1 *275:2 1.59079e-05
2 *275:4 0.000111355
3 *275:5 6.36315e-05
4 *275:6 0.000111355
5 *275:8 7.95393e-05
6 *275:11 0.000438319
7 *275:12 0.000438319

*RES
1 *275:12 *727:CI 1.4
2 *275:11 *275:12 3.23151
3 *275:8 *275:11 1.4
4 *275:7 *275:10 0.220714
5 *275:7 *739:Y 1.4
6 *275:6 *275:8 0.621444
7 *275:5 *275:7 1.4
8 *275:4 *275:6 0.248578
9 *275:4 *275:5 0.497155
10 *275:2 *275:4 0.124289
11 *275:1 *733:B0 1.4
12 *275:1 *275:2 1.4
13 *275:0 *275:1 0.03
*END

*D_NET *276 0.00161745

*CONN
*I *709:B I *C 9.425 12.035 *L 0.00625 *D ADDFX1
*I *738:Y O *C 11.745 22.475 *L 0 *D NOR2XL

*CAP
1 *276:0 0.000141136
2 *276:1 0.000141136
3 *276:2 0.000125455
4 *276:3 7.84092e-05
5 *276:4 0.000109773
6 *276:5 6.27273e-05
7 *276:7 0.00016721
8 *276:8 0.00016721
9 *276:9 0.000266591
10 *276:10 0.000266591
11 *276:11 4.56028e-05
12 *738:Y 4.56028e-05

*RES
1 *276:11 *738:Y 0.372866
2 *276:10 *276:11 1.4
3 *276:9 *276:10 2.11291
4 *276:8 *276:9 1.4
5 *276:7 *276:8 1.36718
6 *276:5 *276:7 1.4
7 *276:4 *709:B 1.4
8 *276:3 *276:5 0.497155
9 *276:2 *276:4 0.870021
10 *276:1 *276:3 0.124289
11 *276:0 *276:2 0.124289
12 *276:0 *276:1 0.99431
*END

*D_NET *277 0.000712999

*CONN
*I *737:Y O *C 33.785 14.935 *L 0 *D CLKXOR2X1
*I *713:A I *C 30.155 9.3 *L 0.00668 *D ADDFXL

*CAP
1 *277:0 0.000124
2 *277:1 4.64999e-05
3 *277:2 0.00031
4 *277:4 0.0002325

*RES
1 *277:4 *713:A 1.4
2 *277:2 *277:4 1.86425
3 *277:1 *737:Y 1.4
4 *277:0 *277:2 0.621417
5 *277:0 *277:1 0.37285
*END

*D_NET *278 0.000799105

*CONN
*I *736:Y O *C 7.975 21.605 *L 0 *D CLKXOR2X1
*I *716:A I *C 6.235 19.865 *L 0.00666 *D ADDFX1

*CAP
1 *278:0 6.27273e-05
2 *278:1 6.27273e-05
3 *278:2 0.000212813
4 *278:3 4.56028e-05
5 *278:4 0.000212813
6 *736:Y 4.56028e-05
7 *278:6 7.84092e-05
8 *278:7 7.84092e-05

*RES
1 *278:7 *716:A 1.4
2 *278:6 *278:7 0.621444
3 *278:4 *278:6 1.4
4 *278:3 *736:Y 0.372866
5 *278:2 *278:4 1.74004
6 *278:1 *278:3 1.4
7 *278:0 *278:2 1.4
8 *278:0 *278:1 0.497155
*END

*D_NET *279 0.000752728

*CONN
*I *735:Y O *C 22.185 16.385 *L 0 *D CLKXOR2X1
*I *726:CI I *C 23.925 11.165 *L 0.00486 *D ADDFXL

*CAP
1 *279:1 6.27273e-05
2 *279:2 0.000297955
3 *279:3 0.000266591
4 *279:4 7.84092e-05
5 *279:5 4.70455e-05

*RES
1 *279:5 *726:CI 1.4
2 *279:4 *279:5 0.372866
3 *279:3 *279:4 0.248578
4 *279:2 *279:3 1.86433
5 *279:1 *279:2 0.497155
6 *735:Y *279:1 1.4
*END

*D_NET *280 0.000217

*CONN
*I *717:B I *C 51.475 12.035 *L 0.00615 *D ADDFXL
*I *734:Y O *C 51.475 14.935 *L 0 *D OAI21X1

*CAP
1 *280:1 0.0001085
2 *280:2 0.0001085

*RES
1 *280:2 *734:Y 1.4
2 *280:1 *280:2 0.869984
3 *717:B *280:1 1.4
*END

*D_NET *281 0.00102687

*CONN
*I *732:CO O *C 66.555 27.695 *L 0 *D ADDFXL
*I *718:CI I *C 72.065 30.595 *L 0.00486 *D ADDFXL

*CAP
1 *281:1 0.000104215
2 *281:2 0.000104215
3 *281:3 6.62712e-05
4 *281:4 8.2839e-05
5 *281:5 0.00014911
6 *281:6 0.00014911
7 *281:7 0.000115975
8 *281:8 9.94068e-05
9 *281:9 6.04925e-05
10 *281:10 7.78617e-05
11 *281:11 1.73691e-05

*RES
1 *281:11 *718:CI 1.4
2 *281:10 *281:11 0.124283
3 *281:9 *281:10 0.432847
4 *281:8 *281:9 1.4
5 *281:7 *281:8 0.745698
6 *281:6 *281:7 0.124283
7 *281:5 *281:6 0.994264
8 *281:4 *281:5 0.124283
9 *281:3 *281:4 0.497132
10 *281:2 *281:3 1.4
11 *281:1 *281:2 0.745697
12 *732:CO *281:1 1.4
*END

*D_NET *282 0.000361047

*CONN
*I *711:CI I *C 71.775 25.375 *L 0.00486 *D ADDFXL
*I *732:S O *C 73.515 26.825 *L 0 *D ADDFXL

*CAP
1 *282:2 9.62795e-05
2 *282:4 9.62795e-05
3 *282:5 8.42441e-05
4 *282:6 8.42441e-05

*RES
1 *282:6 *732:S 1.4
2 *282:5 *282:6 0.621429
3 *282:4 *282:5 1.4
4 *282:2 *282:4 0.745698
5 *282:1 *711:CI 1.4
6 *282:1 *282:2 1.4
7 *282:0 *282:1 0.220714
*END

*D_NET *283 0.00129871

*CONN
*I *731:CO O *C 50.605 17.255 *L 0 *D ADDFXL
*I *719:CI I *C 60.755 16.385 *L 0.00486 *D ADDFXL

*CAP
1 *283:0 3.1e-05
2 *283:1 3.1e-05
3 *283:2 5.19722e-05
4 *283:4 6.92962e-05
5 *283:5 0.00014889
6 *283:6 0.000147613
7 *283:7 0.000176512
8 *283:8 0.000176512
9 *283:9 0.000224652
10 *283:10 0.000208606
11 *283:11 1.63285e-05
12 *283:12 1.63285e-05

*RES
1 *283:12 *719:CI 1.4
2 *283:11 *283:12 0.124289
3 *283:10 *283:11 1.4
4 *283:9 *283:10 1.61568
5 *283:8 *283:9 0.124283
6 *283:7 *283:8 1.24283
7 *283:6 *283:7 0.124283
8 *283:5 *283:6 0.994264
9 *283:4 *283:5 0.124283
10 *283:2 *283:4 0.372849
11 *283:1 *731:CO 1.4
12 *283:0 *283:2 1.4
13 *283:0 *283:1 0.248567
*END

*D_NET *284 0.0010681

*CONN
*I *731:S O *C 57.565 16.385 *L 0 *D ADDFXL
*I *706:A I *C 57.415 11.58 *L 0.00668 *D ADDFXL

*CAP
1 *284:0 8.16424e-05
2 *284:1 8.16424e-05
3 *284:2 0.000272792
4 *284:4 0.000272792
5 *284:5 0.000179613
6 *284:6 0.000179613

*RES
1 *284:6 *706:A 1.4
2 *284:5 *284:6 1.36718
3 *284:4 *284:5 1.4
4 *284:2 *284:4 2.11281
5 *284:1 *731:S 1.4
6 *284:0 *284:2 1.4
7 *284:0 *284:1 0.621444
*END

*D_NET *285 0.00170545

*CONN
*I *730:CO O *C 59.305 14.065 *L 0 *D ADDFXL
*I *710:A I *C 67.275 11.58 *L 0.00668 *D ADDFXL

*CAP
1 *285:0 4.89854e-05
2 *285:1 4.89854e-05
3 *285:2 0.000722097
4 *285:4 0.000722097
5 *285:5 8.16424e-05
6 *285:6 8.16424e-05

*RES
1 *285:6 *710:A 1.4
2 *285:5 *285:6 0.621444
3 *285:4 *285:5 1.4
4 *285:2 *285:4 5.59274
5 *285:1 *730:CO 1.4
6 *285:0 *285:2 1.4
7 *285:0 *285:1 0.372866
*END

*D_NET *286 0.000618791

*CONN
*I *730:S O *C 66.265 14.935 *L 0 *D ADDFXL
*I *707:A I *C 61.765 9.3 *L 0.00668 *D ADDFXL

*CAP
1 *730:S 3.20932e-05
2 *286:1 4.81398e-05
3 *286:2 1.60466e-05
4 *286:3 0.000261256
5 *286:4 0.000261256

*RES
1 *286:4 *707:A 1.4
2 *286:3 *286:4 1.98862
3 *286:2 *286:3 1.4
4 *286:1 *286:2 0.124283
5 *730:S *286:1 0.248566
*END

*D_NET *287 0.000705976

*CONN
*I *729:CO O *C 12.325 14.065 *L 0 *D ADDFXL
*I *705:B I *C 16.965 12.035 *L 0.00625 *D ADDFX1

*CAP
1 *287:0 4.70455e-05
2 *287:1 4.70455e-05
3 *287:2 0.000243215
4 *287:4 0.000243215
5 *287:5 6.27273e-05
6 *287:6 6.27273e-05

*RES
1 *287:6 *705:B 1.4
2 *287:5 *287:6 0.497155
3 *287:4 *287:5 1.4
4 *287:2 *287:4 1.98862
5 *287:1 *729:CO 1.4
6 *287:0 *287:2 1.4
7 *287:0 *287:1 0.372866
*END

*D_NET *288 0.00101096

*CONN
*I *709:A I *C 7.685 11.455 *L 0.00666 *D ADDFX1
*I *729:S O *C 19.285 14.935 *L 0 *D ADDFXL

*CAP
1 *288:1 4.70455e-05
2 *288:2 4.70455e-05
3 *288:3 4.56028e-05
4 *288:4 6.08038e-05
5 *288:5 0.000228014
6 *288:6 0.000228014
7 *288:7 0.000106407
8 *288:8 9.12057e-05
9 *288:9 7.84092e-05
10 *288:10 7.84092e-05

*RES
1 *288:10 *729:S 1.4
2 *288:9 *288:10 0.621444
3 *288:8 *288:9 1.4
4 *288:7 *288:8 0.745732
5 *288:6 *288:7 0.124289
6 *288:5 *288:6 1.74004
7 *288:4 *288:5 0.124289
8 *288:3 *288:4 0.372866
9 *288:2 *288:3 1.4
10 *288:1 *288:2 0.372866
11 *709:A *288:1 1.4
*END

*D_NET *289 0.0014649

*CONN
*I *728:CO O *C 69.165 32.915 *L 0 *D ADDFXL
*I *694:B I *C 73.805 40.165 *L 0.00615 *D ADDFXL

*CAP
1 *289:1 0.000138953
2 *289:2 0.000138953
3 *289:3 0.000132542
4 *289:4 0.000165678
5 *289:5 0.000165678
6 *289:6 0.000132542
7 *289:7 5.21074e-05
8 *289:8 6.94766e-05
9 *289:9 0.000173691
10 *289:10 0.000173691
11 *289:11 6.94766e-05
12 *289:12 5.21074e-05

*RES
1 *289:12 *694:B 1.4
2 *289:11 *289:12 0.372849
3 *289:10 *289:11 0.124283
4 *289:9 *289:10 1.11855
5 *289:8 *289:9 0.124283
6 *289:7 *289:8 0.372849
7 *289:6 *289:7 1.4
8 *289:5 *289:6 0.994264
9 *289:4 *289:5 0.248566
10 *289:3 *289:4 0.994264
11 *289:2 *289:3 1.4
12 *289:1 *289:2 0.994263
13 *728:CO *289:1 1.4
*END

*D_NET *290 0.0016696

*CONN
*I *695:B I *C 65.105 29.725 *L 0.00625 *D ADDFX1
*I *728:S O *C 76.125 32.045 *L 0 *D ADDFXL

*CAP
1 *290:1 0.000104215
2 *290:2 0.000104215
3 *290:3 4.97034e-05
4 *290:4 6.62712e-05
5 *290:5 0.000281653
6 *290:6 0.000281653
7 *290:7 4.97034e-05
8 *290:8 4.97034e-05
9 *290:9 0.000231949
10 *290:10 0.000231949
11 *290:11 8.2839e-05
12 *290:12 6.62712e-05
13 *290:13 3.47383e-05
14 *290:14 3.47383e-05

*RES
1 *290:14 *728:S 1.4
2 *290:13 *290:14 0.248566
3 *290:12 *290:13 1.4
4 *290:11 *290:12 0.497132
5 *290:10 *290:11 0.124283
6 *290:9 *290:10 1.61568
7 *290:8 *290:9 0.124283
8 *290:7 *290:8 0.248566
9 *290:6 *290:7 0.124283
10 *290:5 *290:6 1.98853
11 *290:4 *290:5 0.124283
12 *290:3 *290:4 0.372849
13 *290:2 *290:3 1.4
14 *290:1 *290:2 0.745697
15 *695:B *290:1 1.4
*END

*D_NET *291 0.00100749

*CONN
*I *727:CO O *C 5.38 27.235 *L 0 *D ADDFX1
*I *716:CI I *C 7.395 20.155 *L 0.00487 *D ADDFX1

*CAP
1 *291:0 0.000193477
2 *291:1 0.000193477
3 *291:2 0.000106407
4 *291:4 0.000106407
5 *291:5 0.000203864
6 *291:6 0.000203864

*RES
1 *291:6 *716:CI 1.4
2 *291:5 *291:6 1.61575
3 *291:4 *291:5 1.4
4 *291:2 *291:4 0.870021
5 *291:1 *727:CO 1.4
6 *291:0 *291:2 1.4
7 *291:0 *291:1 1.49147
*END

*D_NET *292 0.000618617

*CONN
*I *704:B I *C 18.705 8.845 *L 0.00625 *D ADDFX1
*I *726:CO O *C 21.315 12.035 *L 0 *D ADDFXL

*CAP
1 *292:1 6.27273e-05
2 *292:2 6.27273e-05
3 *292:3 0.000136809
4 *292:4 0.000136809
5 *292:5 0.000109773
6 *292:6 0.000109773

*RES
1 *292:6 *726:CO 1.4
2 *292:5 *292:6 0.870021
3 *292:4 *292:5 1.4
4 *292:3 *292:4 1.1186
5 *292:2 *292:3 1.4
6 *292:1 *292:2 0.497155
7 *704:B *292:1 1.4
*END

*D_NET *293 0.00105306

*CONN
*I *705:A I *C 15.225 11.455 *L 0.00666 *D ADDFX1
*I *726:S O *C 28.275 11.165 *L 0 *D ADDFXL

*CAP
1 *293:1 1.56818e-05
2 *293:2 1.56818e-05
3 *293:4 0.000476198
4 *293:5 0.000476198
5 *293:7 3.46481e-05
6 *726:S 3.46481e-05

*RES
1 *293:7 *726:S 0.248566
2 *293:6 *293:8 0.220714
3 *293:6 *293:7 1.4
4 *293:5 *293:6 1.4
5 *293:4 *293:5 3.72861
6 *293:2 *293:4 1.4
7 *293:1 *705:A 1.4
8 *293:1 *293:2 0.124289
9 *293:0 *293:1 0.212143
*END

*D_NET *294 0.00165254

*CONN
*I *725:CO O *C 66.265 17.255 *L 0 *D ADDFXL
*I *711:B I *C 72.065 24.505 *L 0.00615 *D ADDFXL

*CAP
1 *294:0 3.20932e-05
2 *725:CO 3.20932e-05
3 *294:2 0.000163285
4 *294:3 0.000163285
5 *294:4 0.000336978
6 *294:5 0.000336978
7 *294:6 4.89854e-05
8 *294:7 6.53139e-05
9 *294:8 0.000163285
10 *294:9 0.000163285
11 *294:10 6.53139e-05
12 *294:11 6.53139e-05
13 *294:12 1.63285e-05

*RES
1 *294:12 *711:B 1.4
2 *294:11 *294:12 0.124289
3 *294:10 *294:11 0.372866
4 *294:9 *294:10 0.124289
5 *294:8 *294:9 1.1186
6 *294:7 *294:8 0.124289
7 *294:6 *294:7 0.372866
8 *294:5 *294:6 1.4
9 *294:4 *294:5 2.60994
10 *294:3 *294:4 1.4
11 *294:2 *294:3 1.24289
12 *294:0 *294:2 1.4
13 *294:0 *725:CO 0.248566
*END

*D_NET *295 0.00103544

*CONN
*I *710:B I *C 68.875 12.035 *L 0.00615 *D ADDFXL
*I *725:S O *C 73.225 16.385 *L 0 *D ADDFXL

*CAP
1 *295:1 0.000179613
2 *295:2 0.000179613
3 *295:3 6.41864e-05
4 *295:4 8.0233e-05
5 *295:5 0.000144419
6 *295:6 0.000144419
7 *295:7 6.41864e-05
8 *295:8 4.81398e-05
9 *295:9 6.53139e-05
10 *295:10 6.53139e-05

*RES
1 *295:10 *725:S 1.4
2 *295:9 *295:10 0.497155
3 *295:8 *295:9 1.4
4 *295:7 *295:8 0.372849
5 *295:6 *295:7 0.124283
6 *295:5 *295:6 0.994264
7 *295:4 *295:5 0.124283
8 *295:3 *295:4 0.497132
9 *295:2 *295:3 1.4
10 *295:1 *295:2 1.36718
11 *710:B *295:1 1.4
*END

*D_NET *296 0.00244285

*CONN
*I *724:CO O *C 45.675 27.695 *L 0 *D ADDFXL
*I *714:CI I *C 54.375 14.935 *L 0.00486 *D ADDFXL

*CAP
1 *296:0 0.000478048
2 *296:1 0.000335166
3 *296:2 0.000478048
4 *296:3 0.000335166
5 *296:4 0.000163285
6 *296:6 0.000195942
7 *296:7 0.000244927
8 *296:8 0.00021227

*RES
1 *296:8 *714:CI 1.4
2 *296:7 *296:8 1.61575
3 *296:6 *296:7 0.248577
4 *296:4 *296:6 1.24289
5 *296:3 *724:CO 1.4
6 *296:2 *296:4 1.4
7 *296:1 *296:3 2.60995
8 *296:0 *296:2 3.47992
9 *296:0 *296:1 1.4
*END

*D_NET *297 0.00241725

*CONN
*I *708:B I *C 49.155 8.845 *L 0.00615 *D ADDFXL
*I *724:S O *C 52.635 26.825 *L 0 *D ADDFXL

*CAP
1 *297:1 4.64999e-05
2 *297:2 6.19999e-05
3 *297:3 0.0001705
4 *297:4 0.000155
5 *297:5 0.000172602
6 *297:6 0.000172602
7 *297:7 0.000718453
8 *297:8 0.000734782
9 *297:9 0.000100573
10 *297:10 8.42441e-05

*RES
1 *297:10 *724:S 1.4
2 *297:9 *297:10 0.621429
3 *297:8 *297:9 0.124289
4 *297:7 *297:8 5.4687
5 *297:6 *297:7 1.4
6 *297:5 *297:6 1.24283
7 *297:4 *297:5 1.4
8 *297:3 *297:4 1.24283
9 *297:2 *297:3 0.124283
10 *297:1 *297:2 0.37285
11 *708:B *297:1 1.4
*END

*D_NET *298 0.00177099

*CONN
*I *723:CO O *C 25.375 17.255 *L 0 *D ADDFXL
*I *713:B I *C 31.755 8.845 *L 0.00615 *D ADDFXL

*CAP
1 *298:3 4.66644e-05
2 *298:4 6.39885e-05
3 *298:5 0.000242537
4 *298:6 0.000242537
5 *298:7 6.92962e-05
6 *298:8 5.19722e-05
7 *298:9 4.64999e-05
8 *298:10 6.19999e-05
9 *298:11 0.000155
10 *298:12 0.000155
11 *298:13 0.0002635
12 *298:14 0.0002635
13 *298:15 3.1e-05
14 *298:16 4.64999e-05
15 *298:17 3.1e-05

*RES
1 *298:17 *713:B 1.4
2 *298:16 *298:17 0.248567
3 *298:15 *298:16 0.124283
4 *298:14 *298:15 0.124283
5 *298:13 *298:14 1.98853
6 *298:12 *298:13 0.124283
7 *298:11 *298:12 1.11855
8 *298:10 *298:11 0.124283
9 *298:9 *298:10 0.37285
10 *298:8 *298:9 1.4
11 *298:7 *298:8 0.372849
12 *298:6 *298:7 0.124283
13 *298:5 *298:6 1.61568
14 *298:4 *298:5 0.124283
15 *298:3 *298:4 0.372863
16 *298:1 *298:3 1.4
17 *298:1 *723:CO 1.4
18 *298:0 *298:1 0.220714
*END

*D_NET *299 0.00107564

*CONN
*I *715:CI I *C 25.085 14.935 *L 0.00486 *D ADDFXL
*I *723:S O *C 32.335 16.385 *L 0 *D ADDFXL

*CAP
1 *299:2 0.000183134
2 *299:4 0.000200458
3 *299:5 0.000207889
4 *299:6 0.000207889
5 *299:7 6.92962e-05
6 *299:8 5.19722e-05
7 *299:9 7.74999e-05
8 *299:10 7.74999e-05

*RES
1 *299:10 *723:S 1.4
2 *299:9 *299:10 0.621417
3 *299:8 *299:9 1.4
4 *299:7 *299:8 0.372849
5 *299:6 *299:7 0.124283
6 *299:5 *299:6 1.36711
7 *299:4 *299:5 0.124283
8 *299:2 *299:4 1.36713
9 *299:1 *715:CI 1.4
10 *299:1 *299:2 1.4
11 *299:0 *299:1 0.220714
*END

*D_NET *300 0.00176522

*CONN
*I *712:A I *C 39.435 9.3 *L 0.00668 *D ADDFXL
*I *722:CO O *C 33.495 12.035 *L 0 *D ADDFXL

*CAP
1 *300:2 5.19722e-05
2 *300:4 6.92962e-05
3 *300:5 0.000173241
4 *300:6 0.000173241
5 *300:7 6.92962e-05
6 *300:8 6.92962e-05
7 *300:9 0.000294509
8 *300:10 0.000294509
9 *300:11 0.000138592
10 *300:12 0.000121268
11 *300:13 0.000155
12 *300:14 0.000155

*RES
1 *300:14 *722:CO 1.4
2 *300:13 *300:14 1.24283
3 *300:12 *300:13 1.4
4 *300:11 *300:12 0.86998
5 *300:10 *300:11 0.124283
6 *300:9 *300:10 1.98853
7 *300:8 *300:9 0.124283
8 *300:7 *300:8 0.372849
9 *300:6 *300:7 0.124283
10 *300:5 *300:6 1.11855
11 *300:4 *300:5 0.124283
12 *300:2 *300:4 0.372849
13 *300:1 *712:A 1.4
14 *300:1 *300:2 1.4
15 *300:0 *300:1 0.220714
*END

*D_NET *301 0.00129474

*CONN
*I *713:CI I *C 31.465 9.715 *L 0.00486 *D ADDFXL
*I *722:S O *C 40.455 11.165 *L 0 *D ADDFXL

*CAP
1 *301:2 8.66203e-05
2 *301:4 0.000103944
3 *301:5 0.000207889
4 *301:6 0.000207889
5 *301:7 0.000259861
6 *301:8 0.000242537
7 *301:9 7.74999e-05
8 *301:10 9.29999e-05
9 *301:11 1.55e-05

*RES
1 *301:11 *722:S 1.4
2 *301:10 *301:11 0.124283
3 *301:9 *301:10 0.621417
4 *301:8 *301:9 1.4
5 *301:7 *301:8 1.73996
6 *301:6 *301:7 0.124283
7 *301:5 *301:6 1.36711
8 *301:4 *301:5 0.124283
9 *301:2 *301:4 0.621415
10 *301:1 *713:CI 1.4
11 *301:1 *301:2 1.4
12 *301:0 *301:1 0.220714
*END

*D_NET *302 0.00316038

*CONN
*I *721:CO O *C 41.615 29.725 *L 0 *D ADDFXL
*I *717:CI I *C 51.185 11.165 *L 0.00486 *D ADDFXL

*CAP
1 *302:0 0.000424969
2 *302:1 0.000393969
3 *302:2 0.000619999
4 *302:4 0.000588999
5 *302:5 0.000519722
6 *302:6 0.000519722
7 *302:7 3.1e-05
8 *302:8 4.64999e-05
9 *302:9 1.55e-05

*RES
1 *302:9 *717:CI 1.4
2 *302:8 *302:9 0.124283
3 *302:7 *302:8 0.248567
4 *302:6 *302:7 1.4
5 *302:5 *302:6 3.72849
6 *302:4 *302:5 1.4
7 *302:2 *302:4 4.72277
8 *302:1 *721:CO 1.4
9 *302:0 *302:2 0.248567
10 *302:0 *302:1 2.9828
*END

*D_NET *303 0.00323805

*CONN
*I *712:B I *C 41.035 8.845 *L 0.00615 *D ADDFXL
*I *721:S O *C 48.575 30.595 *L 0 *D ADDFXL

*CAP
1 *303:2 0.000173241
2 *303:4 0.000173241
3 *303:5 0.0002635
4 *303:6 0.000279
5 *303:7 0.000279
6 *303:8 0.000279
7 *303:9 0.000626469
8 *303:10 0.000610969
9 *303:11 0.000276815
10 *303:12 0.000276815

*RES
1 *303:13 *303:15 0.220714
2 *303:13 *721:S 1.4
3 *303:12 *303:13 1.4
4 *303:11 *303:12 1.98853
5 *303:10 *303:11 1.4
6 *303:9 *303:10 4.72277
7 *303:8 *303:9 0.124283
8 *303:7 *303:8 2.11282
9 *303:6 *303:7 0.124283
10 *303:5 *303:6 2.11282
11 *303:4 *303:5 1.4
12 *303:2 *303:4 1.24283
13 *303:1 *712:B 1.4
14 *303:1 *303:2 1.4
15 *303:0 *303:1 0.220714
*END

*D_NET *304 0.00170369

*CONN
*I *720:CO O *C 41.035 12.035 *L 0 *D ADDFXL
*I *708:A I *C 47.555 9.3 *L 0.00668 *D ADDFXL

*CAP
1 *304:0 4.64999e-05
2 *304:1 4.64999e-05
3 *304:2 0.000691046
4 *304:4 0.000691046
5 *304:5 0.000114299
6 *304:6 0.000114299

*RES
1 *304:6 *708:A 1.4
2 *304:5 *304:6 0.870021
3 *304:4 *304:5 1.4
4 *304:2 *304:4 4.97132
5 *304:1 *720:CO 1.4
6 *304:0 *304:2 1.4
7 *304:0 *304:1 0.37285
*END

*D_NET *305 0.0010905

*CONN
*I *712:CI I *C 40.745 9.715 *L 0.00486 *D ADDFXL
*I *720:S O *C 47.995 11.165 *L 0 *D ADDFXL

*CAP
1 *305:1 4.64999e-05
2 *305:2 4.64999e-05
3 *305:3 5.19722e-05
4 *305:4 6.92962e-05
5 *305:5 0.000346481
6 *305:6 0.000346481
7 *305:7 6.92962e-05
8 *305:8 5.19722e-05
9 *305:9 3.1e-05
10 *305:10 3.1e-05

*RES
1 *305:10 *720:S 1.4
2 *305:9 *305:10 0.248567
3 *305:8 *305:9 1.4
4 *305:7 *305:8 0.372849
5 *305:6 *305:7 0.124283
6 *305:5 *305:6 2.36138
7 *305:4 *305:5 0.124283
8 *305:3 *305:4 0.372849
9 *305:2 *305:3 1.4
10 *305:1 *305:2 0.37285
11 *712:CI *305:1 1.4
*END

*D_NET *306 0.00190703

*CONN
*I *719:CO O *C 58.145 17.255 *L 0 *D ADDFXL
*I *710:CI I *C 68.585 11.165 *L 0.00486 *D ADDFXL

*CAP
1 *306:3 0.000176512
2 *306:4 0.000192559
3 *306:5 0.000320932
4 *306:6 0.000320932
5 *306:7 6.41864e-05
6 *306:8 4.81398e-05
7 *306:9 0.000342898
8 *306:10 0.000391884
9 *306:11 4.89854e-05

*RES
1 *306:11 *710:CI 1.4
2 *306:10 *306:11 0.372866
3 *306:9 *306:10 2.61006
4 *306:8 *306:9 1.4
5 *306:7 *306:8 0.372849
6 *306:6 *306:7 0.124283
7 *306:5 *306:6 2.36138
8 *306:4 *306:5 0.124283
9 *306:3 *306:4 1.36711
10 *306:1 *306:3 1.4
11 *306:1 *719:CO 1.4
12 *306:0 *306:1 0.220714
*END

*D_NET *307 0.00104502

*CONN
*I *707:B I *C 63.365 8.845 *L 0.00615 *D ADDFXL
*I *719:S O *C 65.105 16.385 *L 0 *D ADDFXL

*CAP
1 *307:1 9.79709e-05
2 *307:2 0.000522511
3 *307:3 0.000424541

*RES
1 *307:3 *719:S 1.4
2 *307:2 *307:3 3.23151
3 *307:1 *307:2 0.745732
4 *707:B *307:1 1.4
*END

*D_NET *308 0.000167281

*CONN
*I *695:A I *C 63.365 30.305 *L 0.00666 *D ADDFX1
*I *718:CO O *C 69.455 29.725 *L 0 *D ADDFXL

*CAP
1 *308:1 1.73691e-05
2 *308:2 1.73691e-05
3 *308:4 6.62712e-05
4 *308:5 6.62712e-05

*RES
1 *308:6 *308:8 0.122143
2 *308:6 *718:CO 1.4
3 *308:5 *308:6 1.4
4 *308:4 *308:5 0.497132
5 *308:2 *308:4 1.4
6 *308:1 *695:A 1.4
7 *308:1 *308:2 0.124283
8 *308:0 *308:1 0.212143
*END

*D_NET *309 0.00235082

*CONN
*I *696:B I *C 62.785 22.475 *L 0.00625 *D ADDFX1
*I *718:S O *C 76.415 30.595 *L 0 *D ADDFXL

*CAP
1 *309:2 0.00075419
2 *309:4 0.00075419
3 *309:5 0.00042122
4 *309:6 0.00042122

*RES
1 *309:6 *718:S 1.4
2 *309:5 *309:6 3.10715
3 *309:4 *309:5 1.4
4 *309:2 *309:4 5.8413
5 *309:1 *696:B 1.4
6 *309:1 *309:2 1.4
7 *309:0 *309:1 0.220714
*END

*D_NET *310 0.00125261

*CONN
*I *717:CO O *C 48.575 12.035 *L 0 *D ADDFXL
*I *706:CI I *C 58.725 11.165 *L 0.00486 *D ADDFXL

*CAP
1 *310:3 0.000224574
2 *310:4 0.000240621
3 *310:5 0.000369072
4 *310:6 0.000353025
5 *310:7 3.2657e-05
6 *310:8 3.2657e-05

*RES
1 *310:8 *706:CI 1.4
2 *310:7 *310:8 0.248577
3 *310:6 *310:7 1.4
4 *310:5 *310:6 2.73423
5 *310:4 *310:5 0.124283
6 *310:3 *310:4 1.61568
7 *310:1 *310:3 1.4
8 *310:1 *717:CO 1.4
9 *310:0 *310:1 0.220714
*END

*D_NET *311 0.000925839

*CONN
*I *708:CI I *C 48.865 9.715 *L 0.00486 *D ADDFXL
*I *717:S O *C 55.535 11.165 *L 0 *D ADDFXL

*CAP
1 *311:1 4.64999e-05
2 *311:2 4.64999e-05
3 *311:3 0.000383762
4 *311:4 0.000383762
5 *311:5 3.2657e-05
6 *311:6 3.2657e-05

*RES
1 *311:6 *717:S 1.4
2 *311:5 *311:6 0.248577
3 *311:4 *311:5 1.4
4 *311:3 *311:4 2.85851
5 *311:2 *311:3 1.4
6 *311:1 *311:2 0.37285
7 *708:CI *311:1 1.4
*END

*D_NET *312 0.00146063

*CONN
*I *716:CO O *C 4.8 19.745 *L 0 *D ADDFX1
*I *709:CI I *C 8.845 11.165 *L 0.00487 *D ADDFX1

*CAP
1 *312:0 7.84092e-05
2 *312:1 7.84092e-05
3 *312:2 0.000212813
4 *312:4 0.000212813
5 *312:5 4.70455e-05
6 *312:6 7.84092e-05
7 *312:7 0.000313637
8 *312:8 0.000313637
9 *312:9 7.84092e-05
10 *312:10 4.70455e-05

*RES
1 *312:10 *709:CI 1.4
2 *312:9 *312:10 0.372866
3 *312:8 *312:9 0.248578
4 *312:7 *312:8 2.2372
5 *312:6 *312:7 0.248578
6 *312:5 *312:6 0.372866
7 *312:4 *312:5 1.4
8 *312:2 *312:4 1.74004
9 *312:1 *716:CO 1.4
10 *312:0 *312:2 1.4
11 *312:0 *312:1 0.621444
*END

*D_NET *313 0.00117707

*CONN
*I *715:CO O *C 22.475 14.065 *L 0 *D ADDFXL
*I *703:B I *C 26.245 6.815 *L 0.00625 *D ADDFX1

*CAP
1 *313:0 0.000203864
2 *313:1 0.000203864
3 *313:2 0.000198674
4 *313:4 0.000198674
5 *313:5 0.000186
6 *313:6 0.000186

*RES
1 *313:6 *703:B 1.4
2 *313:5 *313:6 1.4914
3 *313:4 *313:5 1.4
4 *313:2 *313:4 1.61575
5 *313:1 *715:CO 1.4
6 *313:0 *313:2 1.4
7 *313:0 *313:1 1.61575
*END

*D_NET *314 0.00137101

*CONN
*I *704:A I *C 16.965 9.425 *L 0.00666 *D ADDFX1
*I *715:S O *C 29.435 14.935 *L 0 *D ADDFXL

*CAP
1 *314:1 0.000203864
2 *314:2 0.000203864
3 *314:3 0.00041964
4 *314:4 0.00041964
5 *314:5 6.19999e-05
6 *314:6 6.19999e-05

*RES
1 *314:6 *715:S 1.4
2 *314:5 *314:6 0.497134
3 *314:4 *314:5 1.4
4 *314:3 *314:4 3.23144
5 *314:2 *314:3 1.4
6 *314:1 *314:2 1.61575
7 *704:A *314:1 1.4
*END

*D_NET *315 0.0017821

*CONN
*I *707:CI I *C 63.075 9.715 *L 0.00486 *D ADDFXL
*I *714:CO O *C 51.765 14.065 *L 0 *D ADDFXL

*CAP
1 *315:2 0.000288839
2 *315:4 0.000304885
3 *315:5 0.000112326
4 *315:6 0.000112326
5 *315:7 0.000192559
6 *315:8 0.000192559
7 *315:9 6.48251e-05
8 *315:10 4.87785e-05
9 *315:11 0.0001395
10 *315:12 0.000155
11 *315:13 9.29999e-05
12 *315:14 7.74999e-05

*RES
1 *315:14 *714:CO 1.4
2 *315:13 *315:14 0.621417
3 *315:12 *315:13 0.124283
4 *315:11 *315:12 1.11855
5 *315:10 *315:11 1.4
6 *315:9 *315:10 0.372849
7 *315:8 *315:9 0.124283
8 *315:7 *315:8 1.36711
9 *315:6 *315:7 0.124283
10 *315:5 *315:6 0.745698
11 *315:4 *315:5 0.124283
12 *315:2 *315:4 2.23709
13 *315:1 *707:CI 1.4
14 *315:1 *315:2 1.4
15 *315:0 *315:1 0.220714
*END

*D_NET *316 0.000261256

*CONN
*I *714:S O *C 58.725 14.935 *L 0 *D ADDFXL
*I *706:B I *C 59.015 12.035 *L 0.00615 *D ADDFXL

*CAP
1 *316:0 9.79709e-05
2 *316:1 8.16424e-05
3 *316:2 4.89854e-05
4 *316:4 3.2657e-05

*RES
1 *316:4 *706:B 1.4
2 *316:2 *316:4 0.248577
3 *316:1 *714:S 1.4
4 *316:0 *316:2 0.124289
5 *316:0 *316:1 0.621444
*END

*D_NET *317 0.000909962

*CONN
*I *713:CO O *C 28.855 8.845 *L 0 *D ADDFXL
*I *702:B I *C 34.655 6.815 *L 0.00625 *D ADDFX1

*CAP
1 *317:0 3.1e-05
2 *317:1 3.1e-05
3 *317:2 0.000346481
4 *317:4 0.000346481
5 *317:5 7.74999e-05
6 *317:6 7.74999e-05

*RES
1 *317:6 *702:B 1.4
2 *317:5 *317:6 0.621417
3 *317:4 *317:5 1.4
4 *317:2 *317:4 2.48566
5 *317:1 *713:CO 1.4
6 *317:0 *317:2 1.4
7 *317:0 *317:1 0.248567
*END

*D_NET *318 0.00101026

*CONN
*I *703:A I *C 24.505 6.235 *L 0.00666 *D ADDFX1
*I *713:S O *C 35.815 9.715 *L 0 *D ADDFXL

*CAP
1 *318:1 6.19999e-05
2 *318:2 6.19999e-05
3 *318:3 0.000381129
4 *318:4 0.000381129
5 *318:5 6.19999e-05
6 *318:6 6.19999e-05

*RES
1 *318:6 *713:S 1.4
2 *318:5 *318:6 0.497134
3 *318:4 *318:5 1.4
4 *318:3 *318:4 2.73422
5 *318:2 *318:3 1.4
6 *318:1 *318:2 0.497134
7 *703:A *318:1 1.4
*END

*D_NET *319 0.00136039

*CONN
*I *712:CO O *C 38.135 8.845 *L 0 *D ADDFXL
*I *701:B I *C 47.125 6.815 *L 0.00625 *D ADDFX1

*CAP
1 *319:0 6.19999e-05
2 *319:1 6.19999e-05
3 *319:2 5.19722e-05
4 *319:4 6.92962e-05
5 *319:5 0.000415777
6 *319:6 0.000415777
7 *319:7 0.000103944
8 *319:8 8.66203e-05
9 *319:9 4.64999e-05
10 *319:10 4.64999e-05

*RES
1 *319:10 *701:B 1.4
2 *319:9 *319:10 0.37285
3 *319:8 *319:9 1.4
4 *319:7 *319:8 0.621415
5 *319:6 *319:7 0.124283
6 *319:5 *319:6 2.85851
7 *319:4 *319:5 0.124283
8 *319:2 *319:4 0.372849
9 *319:1 *712:CO 1.4
10 *319:0 *319:2 1.4
11 *319:0 *319:1 0.497134
*END

*D_NET *320 0.0011142

*CONN
*I *702:A I *C 32.915 6.235 *L 0.00666 *D ADDFX1
*I *712:S O *C 45.095 9.715 *L 0 *D ADDFXL

*CAP
1 *320:1 3.1e-05
2 *320:2 3.1e-05
3 *320:3 0.000433101
4 *320:4 0.000433101
5 *320:5 9.29999e-05
6 *320:6 9.29999e-05

*RES
1 *320:6 *712:S 1.4
2 *320:5 *320:6 0.7457
3 *320:4 *320:5 1.4
4 *320:3 *320:4 3.10707
5 *320:2 *320:3 1.4
6 *320:1 *320:2 0.248567
7 *702:A *320:1 1.4
*END

*D_NET *321 0.0006171

*CONN
*I *696:A I *C 61.045 21.895 *L 0.00666 *D ADDFX1
*I *711:CO O *C 69.165 24.505 *L 0 *D ADDFXL

*CAP
1 *321:1 8.16424e-05
2 *321:2 0.000163285
3 *321:3 0.000130628
4 *321:4 4.89854e-05
5 *321:5 9.62795e-05
6 *711:CO 9.62795e-05

*RES
1 *321:5 *711:CO 0.745698
2 *321:4 *321:5 1.4
3 *321:3 *321:4 0.372866
4 *321:2 *321:3 0.621444
5 *321:1 *321:2 0.621444
6 *696:A *321:1 1.4
*END

*D_NET *322 0.00132653

*CONN
*I *697:A I *C 64.815 19.865 *L 0.00666 *D ADDFX1
*I *711:S O *C 76.125 25.375 *L 0 *D ADDFXL

*CAP
1 *322:1 1.63285e-05
2 *322:2 1.63285e-05
3 *322:4 0.000353025
4 *322:5 0.000353025
5 *322:6 0.000293913
6 *322:7 0.000293913

*RES
1 *322:7 *711:S 1.4
2 *322:6 *322:7 2.2372
3 *322:5 *322:6 1.4
4 *322:4 *322:5 2.73423
5 *322:2 *322:4 1.4
6 *322:1 *697:A 1.4
7 *322:1 *322:2 0.124289
8 *322:0 *322:1 0.212143
*END

*D_NET *323 0.000881738

*CONN
*I *710:CO O *C 65.975 12.035 *L 0 *D ADDFXL
*I *697:B I *C 66.555 19.285 *L 0.00625 *D ADDFX1

*CAP
1 *323:1 8.16424e-05
2 *323:2 9.79709e-05
3 *323:3 8.16424e-05
4 *323:4 8.16424e-05
5 *323:5 0.000277584
6 *323:6 0.000261256

*RES
1 *323:6 *697:B 1.4
2 *323:5 *323:6 1.98862
3 *323:4 *323:5 0.124289
4 *323:3 *323:4 0.497155
5 *323:2 *323:3 0.124289
6 *323:1 *323:2 0.621444
7 *710:CO *323:1 1.4
*END

*D_NET *324 0.00127193

*CONN
*I *710:S O *C 72.935 11.165 *L 0 *D ADDFXL
*I *698:A I *C 68.585 21.895 *L 0.00666 *D ADDFX1

*CAP
1 *710:S 4.81398e-05
2 *324:1 4.81398e-05
3 *324:2 0.000457198
4 *324:3 0.000473526
5 *324:4 0.000130628
6 *324:5 0.000114299

*RES
1 *324:5 *698:A 1.4
2 *324:4 *324:5 0.870021
3 *324:3 *324:4 0.124289
4 *324:2 *324:3 3.48008
5 *324:1 *324:2 1.4
6 *710:S *324:1 0.372849
*END

*D_NET *325 0.00112679

*CONN
*I *705:CI I *C 16.385 11.165 *L 0.00487 *D ADDFX1
*I *709:CO O *C 6.25 11.575 *L 0 *D ADDFX1

*CAP
1 *325:2 0.000532033
2 *325:4 0.000532033
3 *325:5 3.13637e-05
4 *325:6 3.13637e-05

*RES
1 *325:6 *709:CO 1.4
2 *325:5 *325:6 0.248578
3 *325:4 *325:5 1.4
4 *325:2 *325:4 4.35011
5 *325:1 *705:CI 1.4
6 *325:1 *325:2 1.4
7 *325:0 *325:1 0.220714
*END

*D_NET *326 0.00127586

*CONN
*I *708:CO O *C 46.255 8.845 *L 0 *D ADDFXL
*I *700:B I *C 55.245 6.815 *L 0.00625 *D ADDFX1

*CAP
1 *326:3 0.000523632
2 *326:4 0.000523632
3 *326:5 0.000114299
4 *326:6 0.000114299

*RES
1 *326:6 *700:B 1.4
2 *326:5 *326:6 0.870021
3 *326:4 *326:5 1.4
4 *326:3 *326:4 3.85277
5 *326:1 *326:3 1.4
6 *326:1 *708:CO 1.4
7 *326:0 *326:1 0.220714
*END

*D_NET *327 0.00059051

*CONN
*I *701:A I *C 45.385 6.235 *L 0.00666 *D ADDFX1
*I *708:S O *C 53.215 9.715 *L 0 *D ADDFXL

*CAP
1 *327:1 7.74999e-05
2 *327:2 7.74999e-05
3 *327:3 0.000168769
4 *327:4 0.000168769
5 *327:5 4.89854e-05
6 *327:6 4.89854e-05

*RES
1 *327:6 *708:S 1.4
2 *327:5 *327:6 0.372866
3 *327:4 *327:5 1.4
4 *327:3 *327:4 1.24283
5 *327:2 *327:3 1.4
6 *327:1 *327:2 0.621417
7 *701:A *327:1 1.4
*END

*D_NET *328 0.0026908

*CONN
*I *707:CO O *C 60.465 8.845 *L 0 *D ADDFXL
*I *698:B I *C 70.325 22.475 *L 0.00625 *D ADDFX1

*CAP
1 *328:0 0.000130628
2 *328:1 0.000408212
3 *328:2 0.000114299
4 *328:3 0.000391884
5 *328:4 0.000561631
6 *328:6 0.000561631
7 *328:7 0.000261256
8 *328:8 0.000261256

*RES
1 *328:8 *698:B 1.4
2 *328:7 *328:8 1.98862
3 *328:6 *328:7 1.4
4 *328:4 *328:6 4.34991
5 *328:3 *707:CO 1.4
6 *328:2 *328:4 1.4
7 *328:1 *328:3 2.98293
8 *328:0 *328:2 0.870021
9 *328:0 *328:1 0.124289
*END

*D_NET *329 0.000358099

*CONN
*I *707:S O *C 67.425 9.715 *L 0 *D ADDFXL
*I *699:A I *C 63.365 6.235 *L 0.00666 *D ADDFX1

*CAP
1 *707:S 3.20932e-05
2 *329:1 3.20932e-05
3 *329:2 3.2657e-05
4 *329:3 4.89854e-05
5 *329:4 0.000114299
6 *329:5 9.79709e-05

*RES
1 *329:5 *699:A 1.4
2 *329:4 *329:5 0.745732
3 *329:3 *329:4 0.124289
4 *329:2 *329:3 0.248577
5 *329:1 *329:2 1.4
6 *707:S *329:1 0.248566
*END

*D_NET *330 0.0016469

*CONN
*I *706:CO O *C 56.115 12.035 *L 0 *D ADDFXL
*I *699:B I *C 65.105 6.815 *L 0.00625 *D ADDFX1

*CAP
1 *330:0 0.00021227
2 *330:1 0.00021227
3 *330:2 4.81398e-05
4 *330:4 6.41864e-05
5 *330:5 0.000417211
6 *330:6 0.000417211
7 *330:7 6.41864e-05
8 *330:8 4.81398e-05
9 *330:9 8.16424e-05
10 *330:10 8.16424e-05

*RES
1 *330:10 *699:B 1.4
2 *330:9 *330:10 0.621444
3 *330:8 *330:9 1.4
4 *330:7 *330:8 0.372849
5 *330:6 *330:7 0.124283
6 *330:5 *330:6 3.10708
7 *330:4 *330:5 0.124283
8 *330:2 *330:4 0.372849
9 *330:1 *706:CO 1.4
10 *330:0 *330:2 1.4
11 *330:0 *330:1 1.61575
*END

*D_NET *331 0.00103713

*CONN
*I *700:A I *C 53.505 6.235 *L 0.00666 *D ADDFX1
*I *706:S O *C 63.075 11.165 *L 0 *D ADDFXL

*CAP
1 *331:2 0.000224652
2 *331:4 0.000224652
3 *331:5 0.00021227
4 *331:6 0.000244927
5 *331:7 8.16424e-05
6 *331:8 4.89854e-05

*RES
1 *331:8 *706:S 1.4
2 *331:7 *331:8 0.372866
3 *331:6 *331:7 0.248577
4 *331:5 *331:6 1.61575
5 *331:4 *331:5 1.4
6 *331:2 *331:4 1.73996
7 *331:1 *700:A 1.4
8 *331:1 *331:2 1.4
9 *331:0 *331:1 0.220714
*END

*D_NET *332 0.000736378

*CONN
*I *705:CO O *C 13.79 11.575 *L 0 *D ADDFX1
*I *704:CI I *C 18.125 9.715 *L 0.00487 *D ADDFX1

*CAP
1 *332:0 6.27273e-05
2 *332:1 6.27273e-05
3 *332:2 4.56028e-05
4 *332:4 6.08038e-05
5 *332:5 0.000136809
6 *332:6 0.000136809
7 *332:7 7.60047e-05
8 *332:8 6.08038e-05
9 *332:9 4.70455e-05
10 *332:10 4.70455e-05

*RES
1 *332:10 *704:CI 1.4
2 *332:9 *332:10 0.372866
3 *332:8 *332:9 1.4
4 *332:7 *332:8 0.497155
5 *332:6 *332:7 0.124289
6 *332:5 *332:6 0.99431
7 *332:4 *332:5 0.124289
8 *332:2 *332:4 0.372866
9 *332:1 *705:CO 1.4
10 *332:0 *332:2 1.4
11 *332:0 *332:1 0.497155
*END

*D_NET *333 0.00153067

*CONN
*I *704:CO O *C 15.53 9.305 *L 0 *D ADDFX1
*I *703:CI I *C 25.665 5.945 *L 0.00487 *D ADDFX1

*CAP
1 *333:0 7.84092e-05
2 *333:1 7.84092e-05
3 *333:2 0.000562435
4 *333:3 3.04019e-05
5 *333:4 0.000562435
6 *704:CO 3.04019e-05
7 *333:6 9.4091e-05
8 *333:7 9.4091e-05

*RES
1 *333:7 *703:CI 1.4
2 *333:6 *333:7 0.745733
3 *333:4 *333:6 1.4
4 *333:3 *704:CO 0.248578
5 *333:2 *333:4 4.59868
6 *333:1 *333:3 1.4
7 *333:0 *333:2 1.4
8 *333:0 *333:1 0.621444
*END

*D_NET *334 0.00134134

*CONN
*I *703:CO O *C 23.07 6.355 *L 0 *D ADDFX1
*I *702:CI I *C 34.075 5.945 *L 0.00487 *D ADDFX1

*CAP
1 *334:3 0.000410809
2 *334:4 0.000445457
3 *334:5 0.000259861
4 *334:6 0.000225213

*RES
1 *334:7 *702:CI 1.4
2 *334:7 *334:8 0.220714
3 *334:6 *334:7 1.4
4 *334:5 *334:6 1.61568
5 *334:4 *334:5 0.248566
6 *334:3 *334:4 3.10713
7 *334:1 *334:3 1.4
8 *334:1 *703:CO 1.4
9 *334:0 *334:1 0.220714
*END

*D_NET *335 0.00207159

*CONN
*I *702:CO O *C 31.48 6.355 *L 0 *D ADDFX1
*I *701:CI I *C 46.545 5.945 *L 0.00487 *D ADDFX1

*CAP
1 *335:2 3.46481e-05
2 *335:3 5.19722e-05
3 *702:CO 3.46481e-05
4 *335:5 6.92962e-05
5 *335:6 0.000190565
6 *335:7 0.000190565
7 *335:8 0.00072761
8 *335:9 0.000710286
9 *335:10 3.1e-05
10 *335:11 3.1e-05

*RES
1 *335:11 *701:CI 1.4
2 *335:10 *335:11 0.248567
3 *335:9 *335:10 1.4
4 *335:8 *335:9 5.0956
5 *335:7 *335:8 0.124283
6 *335:6 *335:7 1.24283
7 *335:5 *335:6 0.124283
8 *335:3 *335:5 0.372849
9 *335:2 *702:CO 0.248566
10 *335:1 *335:3 1.4
11 *335:1 *335:2 1.4
12 *335:0 *335:1 0.220714
*END

*D_NET *336 0.00139156

*CONN
*I *700:CI I *C 54.665 5.945 *L 0.00487 *D ADDFX1
*I *701:CO O *C 43.95 6.355 *L 0 *D ADDFX1

*CAP
1 *336:2 0.00019703
2 *336:4 0.000214354
3 *336:5 0.000242537
4 *336:6 0.000242537
5 *336:7 0.000225213
6 *336:8 0.000207889
7 *336:9 3.1e-05
8 *336:10 3.1e-05

*RES
1 *336:10 *701:CO 1.4
2 *336:9 *336:10 0.248567
3 *336:8 *336:9 1.4
4 *336:7 *336:8 1.49139
5 *336:6 *336:7 0.124283
6 *336:5 *336:6 1.61568
7 *336:4 *336:5 0.124283
8 *336:2 *336:4 1.4914
9 *336:1 *700:CI 1.4
10 *336:1 *336:2 1.4
11 *336:0 *336:1 0.220714
*END

*D_NET *337 0.00150966

*CONN
*I *700:CO O *C 52.07 6.355 *L 0 *D ADDFX1
*I *699:CI I *C 64.525 5.945 *L 0.00487 *D ADDFX1

*CAP
1 *337:3 0.000145058
2 *337:4 0.000161105
3 *337:5 0.000144419
4 *337:6 0.000144419
5 *337:7 9.62795e-05
6 *337:8 9.62795e-05
7 *337:9 0.000192559
8 *337:10 0.000192559
9 *337:11 0.000176512
10 *337:12 0.000160466

*RES
1 *337:13 *699:CI 1.4
2 *337:13 *337:14 0.220714
3 *337:12 *337:13 1.4
4 *337:11 *337:12 1.24283
5 *337:10 *337:11 0.124283
6 *337:9 *337:10 1.36711
7 *337:8 *337:9 0.124283
8 *337:7 *337:8 0.621415
9 *337:6 *337:7 0.124283
10 *337:5 *337:6 0.994264
11 *337:4 *337:5 0.124283
12 *337:3 *337:4 1.11855
13 *337:1 *337:3 1.4
14 *337:1 *700:CO 1.4
15 *337:0 *337:1 0.220714
*END

*D_NET *338 0.0027578

*CONN
*I *699:CO O *C 61.93 6.355 *L 0 *D ADDFX1
*I *698:CI I *C 69.745 21.605 *L 0.00487 *D ADDFX1

*CAP
1 *338:0 3.20932e-05
2 *699:CO 3.20932e-05
3 *338:2 0.000571497
4 *338:3 0.000587825
5 *338:4 0.000244927
6 *338:5 0.000228599
7 *338:6 4.81398e-05
8 *338:7 6.41864e-05
9 *338:8 0.000208606
10 *338:9 0.000208606
11 *338:10 0.000224652
12 *338:11 0.000208606
13 *338:12 4.89854e-05
14 *338:13 4.89854e-05

*RES
1 *338:13 *698:CI 1.4
2 *338:12 *338:13 0.372866
3 *338:11 *338:12 1.4
4 *338:10 *338:11 1.61568
5 *338:9 *338:10 0.124283
6 *338:8 *338:9 1.4914
7 *338:7 *338:8 0.124283
8 *338:6 *338:7 0.372849
9 *338:5 *338:6 1.4
10 *338:4 *338:5 1.74004
11 *338:3 *338:4 0.124289
12 *338:2 *338:3 4.35011
13 *338:0 *338:2 1.4
14 *338:0 *699:CO 0.248566
*END

*D_NET *339 0.000359227

*CONN
*I *697:CI I *C 65.975 20.155 *L 0.00487 *D ADDFX1
*I *698:CO O *C 67.15 22.015 *L 0 *D ADDFX1

*CAP
1 *339:1 3.2657e-05
2 *339:2 9.79709e-05
3 *339:3 0.000146956
4 *339:4 8.16424e-05

*RES
1 *339:4 *698:CO 1.4
2 *339:3 *339:4 0.621444
3 *339:2 *339:3 0.497155
4 *339:1 *339:2 0.248577
5 *697:CI *339:1 1.4
*END

*D_NET *340 0.000359227

*CONN
*I *696:CI I *C 62.205 21.605 *L 0.00487 *D ADDFX1
*I *697:CO O *C 63.38 19.745 *L 0 *D ADDFX1

*CAP
1 *340:0 9.79709e-05
2 *340:1 0.000146956
3 *340:2 3.2657e-05
4 *340:3 8.16424e-05

*RES
1 *340:3 *697:CO 1.4
2 *340:2 *696:CI 1.4
3 *340:1 *340:3 0.621444
4 *340:0 *340:2 0.248577
5 *340:0 *340:1 0.497155
*END

*D_NET *341 0.00152465

*CONN
*I *696:CO O *C 59.61 22.015 *L 0 *D ADDFX1
*I *695:CI I *C 64.525 30.595 *L 0.00487 *D ADDFX1

*CAP
1 *341:1 0.000263857
2 *341:2 0.000263857
3 *341:3 0.000281653
4 *341:4 0.000281653
5 *341:5 0.000216815
6 *341:6 0.000216815

*RES
1 *341:6 *695:CI 1.4
2 *341:5 *341:6 1.55139
3 *341:4 *341:5 1.4
4 *341:3 *341:4 2.11281
5 *341:2 *341:3 1.4
6 *341:1 *341:2 1.98861
7 *696:CO *341:1 1.4
*END

*D_NET *342 0.0028507

*CONN
*I *695:CO O *C 61.93 30.185 *L 0 *D ADDFX1
*I *694:CI I *C 73.515 41.035 *L 0.00486 *D ADDFXL

*CAP
1 *342:1 1.73691e-05
2 *342:2 1.65678e-05
3 *342:3 1.73691e-05
4 *695:CO 1.65678e-05
5 *342:5 0.00067928
6 *342:6 0.00067928
7 *342:7 5.21074e-05
8 *342:8 8.68457e-05
9 *342:9 0.000260537
10 *342:10 0.000260537
11 *342:11 0.00039949
12 *342:12 0.000364752

*RES
1 *342:12 *694:CI 1.4
2 *342:11 *342:12 2.60994
3 *342:10 *342:11 0.248566
4 *342:9 *342:10 1.61568
5 *342:8 *342:9 0.248566
6 *342:7 *342:8 0.372849
7 *342:6 *342:7 1.4
8 *342:5 *342:6 5.0956
9 *342:3 *342:5 1.4
10 *342:2 *695:CO 0.124283
11 *342:1 *342:3 0.124283
12 *342:1 *342:2 1.4
13 *342:0 *342:1 0.0878571
*END

*D_NET *343 0.000927747

*CONN
*I *693:A I *C 78.445 40.745 *L 0.00273 *D INVX1
*I *694:CO O *C 70.905 40.165 *L 0 *D ADDFXL

*CAP
1 *343:2 0.000429135
2 *343:4 0.000429135
3 *343:5 3.47383e-05
4 *343:6 3.47383e-05

*RES
1 *343:6 *694:CO 1.4
2 *343:5 *343:6 0.248566
3 *343:4 *343:5 1.4
4 *343:2 *343:4 3.23136
5 *343:1 *693:A 1.4
6 *343:1 *343:2 1.4
7 *343:0 *343:1 0.220714
*END

*D_NET *344 0.000365842

*CONN
*I *692:Y O *C 54.955 63.075 *L 0 *D NAND2BX1
*I *519:D I *C 56.405 66.845 *L 0.00276 *D SDFFRHQX1

*CAP
1 *344:1 8.31459e-05
2 *344:2 0.000149663
3 *344:3 9.97751e-05
4 *344:4 3.32584e-05

*RES
1 *344:4 *519:D 1.4
2 *344:3 *344:4 0.248577
3 *344:2 *344:3 0.497153
4 *344:1 *344:2 0.621441
5 *692:Y *344:1 1.4
*END

*D_NET *345 0.0133989

*CONN
*I *670:A1 I *C 15.515 63.365 *L 0.0028 *D AOI22X1
*I *678:A1 I *C 15.805 68.585 *L 0.0028 *D AOI22X1
*I *672:A1 I *C 13.195 61.915 *L 0.0028 *D AOI22X1
*I *681:A1 I *C 34.075 67.135 *L 0.0028 *D AOI22X1
*I *683:A1 I *C 42.195 67.135 *L 0.0028 *D AOI22X1
*I *680:A1 I *C 25.085 73.805 *L 0.0028 *D AOI22X1
*I *685:A1 I *C 47.705 67.135 *L 0.0028 *D AOI22X1
*I *674:A1 I *C 26.245 61.915 *L 0.0028 *D AOI22X1
*I *687:A1 I *C 52.925 63.365 *L 0.0028 *D AOI22X1
*I *682:A1 I *C 59.595 67.135 *L 0.0028 *D AOI22X1
*I *686:A1 I *C 64.815 68.585 *L 0.0028 *D AOI22X1
*I *691:Y O *C 64.8975 61.625 *L 0 *D CLKINVX1
*I *665:D I *C 56.985 61.335 *L 0.0016 *D AND4X1
*I *675:C I *C 54.665 58.435 *L 0.00165 *D OR3X1
*I *676:A I *C 52.345 53.505 *L 0.00173 *D OR2X1
*I *669:A1 I *C 65.685 58.145 *L 0.0028 *D AOI22X1
*I *679:A1 I *C 67.425 63.365 *L 0.0028 *D AOI22X1
*I *673:A1 I *C 68.005 58.145 *L 0.0028 *D AOI22X1
*I *671:A1 I *C 65.975 52.925 *L 0.0028 *D AOI22X1

*CAP
1 *345:1 0.000188051
2 *345:2 0.000282076
3 *345:3 0.000109373
4 *345:5 0.000499993
5 *345:6 0.000109696
6 *345:7 0.000109373
7 *345:8 0.000596441
8 *345:9 1.56709e-05
9 *345:10 1.56709e-05
10 *345:11 0.000549491
11 *345:12 0.000297747
12 *345:14 9.40254e-05
13 *345:15 0.000940933
14 *345:16 0.000200272
15 *345:17 0.000313418
16 *345:18 7.83545e-05
17 *345:19 0.000818961
18 *345:21 0.000216962
19 *345:22 9.40254e-05
20 *345:24 0.000470467
21 *345:28 0.000100136
22 *345:29 7.83545e-05
23 *345:30 0.00026137
24 *345:34 8.34468e-05
25 *345:36 0.000171004
26 *345:40 0.000178049
27 *345:41 0.000145146
28 *345:42 0.00019955
29 *345:43 0.000258037
30 *345:44 0.000315954
31 *345:45 0.000532202
32 *345:46 0.000166292
33 *345:48 0.000290292
34 *345:50 6.45093e-05
35 *345:51 8.31459e-05
36 *345:52 0.000133033
37 *345:55 0.000193528
38 *345:56 6.65167e-05
39 *345:57 8.31459e-05
40 *345:58 0.000166292
41 *345:59 0.000129019
42 *345:60 0.000149663
43 *345:61 4.99176e-05
44 *345:63 0.000266067
45 *345:64 3.32584e-05
46 *345:65 0.000149663
47 *345:66 0.000216931
48 *345:67 0.000299325
49 *345:68 3.32584e-05
50 *345:69 3.22547e-05
51 *345:70 0.000216931
52 *691:Y 0.000145146
53 *345:72 0.00019955
54 *675:C 3.22547e-05
55 *345:75 0.000182951
56 *345:76 0.000145146
57 *345:77 8.31459e-05
58 *345:78 0.000166292
59 *345:79 0.000166292
60 *345:80 0.000133033
61 *345:82 9.97751e-05
62 *345:83 9.97751e-05
63 *345:84 0.000116404
64 *345:87 0.000149663
65 *345:88 0.000216179
66 *345:89 0.000116404
67 *345:90 0.00019955

*RES
1 *345:90 *671:A1 1.4
2 *345:89 *673:A1 1.4
3 *345:88 *345:90 1.49146
4 *345:87 *345:89 0.870018
5 *345:84 *345:88 0.124288
6 *345:83 *345:87 0.248577
7 *345:82 *679:A1 1.4
8 *345:80 *669:A1 1.4
9 *345:80 *345:84 0.74573
10 *345:79 *345:83 0.497153
11 *345:79 *345:82 0.74573
12 *345:78 *676:A 1.4
13 *345:77 *345:80 0.248577
14 *345:76 *345:79 1.4
15 *345:75 *345:78 1.24288
16 *345:72 *345:77 0.372865
17 *691:Y *345:76 1.11855
18 *345:70 *345:75 0.124286
19 *345:69 *675:C 0.248566
20 *345:68 *665:D 1.4
21 *345:67 *345:72 1.11859
22 *345:67 *691:Y 1.4
23 *345:66 *345:70 1.4914
24 *345:65 *345:69 1.4
25 *345:64 *345:68 0.248577
26 *345:63 *345:67 1.11859
27 *345:61 *345:66 0.124286
28 *345:60 *345:65 1.11859
29 *345:59 *345:64 1.4
30 *345:58 *345:63 0.870018
31 *345:57 *686:A1 1.4
32 *345:56 *345:61 0.248577
33 *345:55 *345:60 1.4
34 *345:55 *345:59 0.994264
35 *345:52 *345:58 0.372865
36 *345:52 *345:57 0.621441
37 *345:51 *345:56 0.248577
38 *345:50 *345:55 0.497132
39 *345:49 *682:A1 1.4
40 *345:49 *345:53 0.220714
41 *345:48 *345:52 1.4
42 *345:46 *345:51 0.372865
43 *345:46 *345:50 1.4
44 *345:45 *345:49 1.4
45 *345:45 *345:48 2.23709
46 *345:44 *687:A1 1.4
47 *345:44 *345:46 0.870018
48 *345:43 *345:45 1.86425
49 *345:42 *345:44 1.49146
50 *345:41 *345:43 0.124283
51 *345:40 *345:42 1.4
52 *345:40 *345:41 0.994264
53 *345:36 *345:40 0.372852
54 *345:34 *674:A1 1.4
55 *345:31 *685:A1 1.4
56 *345:31 *345:37 0.220714
57 *345:30 *345:36 0.870021
58 *345:29 *680:A1 1.4
59 *345:28 *345:34 0.621415
60 *345:25 *683:A1 1.4
61 *345:25 *345:32 0.220714
62 *345:24 *345:31 1.4
63 *345:24 *345:30 0.99431
64 *345:22 *345:29 0.621413
65 *345:21 *345:28 0.124283
66 *345:20 *681:A1 1.4
67 *345:20 *345:26 0.220714
68 *345:19 *345:25 1.4
69 *345:19 *345:24 2.36149
70 *345:18 *672:A1 1.4
71 *345:17 *345:22 0.124283
72 *345:16 *345:21 1.4914
73 *345:15 *345:20 1.4
74 *345:15 *345:19 3.48009
75 *345:14 *345:18 0.621413
76 *345:12 *345:17 2.36137
77 *345:11 *345:16 1.4
78 *345:11 *345:15 3.23151
79 *345:10 *345:14 0.124283
80 *345:9 *678:A1 1.4
81 *345:8 *345:12 1.4
82 *345:8 *345:11 0.745733
83 *345:7 *345:10 1.4
84 *345:6 *345:9 0.124283
85 *345:5 *345:8 3.97724
86 *345:3 *345:7 0.870021
87 *345:2 *345:6 0.745696
88 *345:2 *345:5 1.4
89 *345:1 *670:A1 1.4
90 *345:1 *345:3 1.4
91 *345:1 *345:2 1.49139
92 *345:0 *345:1 0.220714
*END

*D_NET *346 0.000258037

*CONN
*I *665:C I *C 57.275 61.625 *L 0.00168 *D AND4X1
*I *690:Y O *C 59.6775 61.335 *L 0 *D INVXL

*CAP
1 *346:2 0.000129019
2 *346:4 0.000129019

*RES
1 *346:5 *346:7 0.220714
2 *346:5 *690:Y 1.4
3 *346:4 *346:5 1.4
4 *346:2 *346:4 0.994264
5 *346:1 *665:C 1.4
6 *346:1 *346:2 1.4
7 *346:0 *346:1 0.220714
*END

*D_NET *347 0.000658141

*CONN
*I *665:B I *C 57.565 61.335 *L 0.00178 *D AND4X1
*I *688:B I *C 59.015 58.725 *L 0.00167 *D NAND2XL
*I *689:Y O *C 59.9675 58.435 *L 0 *D CLKINVX1

*CAP
1 *347:0 4.98875e-05
2 *347:1 8.06367e-05
3 *347:2 4.98875e-05
4 *347:3 0.000112891
5 *347:5 3.22547e-05
6 *347:6 3.32584e-05
7 *347:7 9.97751e-05
8 *347:8 4.98875e-05
9 *347:9 3.32584e-05
10 *347:10 3.32584e-05
11 *347:12 4.98875e-05
12 *347:13 3.32584e-05

*RES
1 *347:13 *689:Y 1.4
2 *347:12 *347:13 0.248577
3 *347:10 *347:12 0.124288
4 *347:9 *688:B 1.4
5 *347:8 *347:10 0.124288
6 *347:7 *347:9 0.248577
7 *347:7 *347:8 0.248577
8 *347:6 *347:7 0.248577
9 *347:5 *347:6 1.4
10 *347:3 *347:5 0.248566
11 *347:2 *665:B 1.4
12 *347:1 *347:3 0.621415
13 *347:0 *347:2 0.372865
14 *347:0 *347:1 1.4
*END

*D_NET *348 0.00154149

*CONN
*I *688:Y O *C 59.015 58.145 *L 0 *D NAND2XL
*I *677:B I *C 56.695 58.435 *L 0.00165 *D OR2X1
*I *676:B I *C 51.475 53.215 *L 0.00165 *D OR2X1

*CAP
1 *348:3 0.000145146
2 *348:4 0.000145146
3 *348:5 0.000166292
4 *348:6 0.000166292
5 *348:8 4.8382e-05
6 *348:9 6.45093e-05
7 *348:10 0.000209655
8 *348:11 0.000209655
9 *348:12 6.77527e-05
10 *348:13 5.16254e-05
11 *348:14 0.000133515
12 *348:15 0.000133515

*RES
1 *348:15 *676:B 1.4
2 *348:14 *348:15 0.994264
3 *348:13 *348:14 1.4
4 *348:12 *348:13 0.372863
5 *348:11 *348:12 0.124283
6 *348:10 *348:11 1.4914
7 *348:9 *348:10 0.124283
8 *348:8 *348:9 0.372849
9 *348:6 *348:8 1.4
10 *348:5 *677:B 1.4
11 *348:5 *348:6 1.24288
12 *348:4 *348:5 1.4
13 *348:3 *348:4 1.11855
14 *348:1 *348:3 1.4
15 *348:1 *688:Y 1.4
16 *348:0 *348:1 0.220714
*END

*D_NET *349 0.000335

*CONN
*I *687:Y O *C 53.215 63.365 *L 0 *D AOI22X1
*I *649:S0 I *C 50.605 63.945 *L 0.00372 *D MXI2XL

*CAP
1 *349:3 0.000117432
2 *349:4 0.000117432
3 *349:5 5.00681e-05
4 *349:6 5.00681e-05

*RES
1 *349:6 *649:S0 1.4
2 *349:5 *349:6 0.372849
3 *349:4 *349:5 1.4
4 *349:3 *349:4 0.870001
5 *349:1 *349:3 1.4
6 *349:1 *687:Y 1.4
7 *349:0 *349:1 0.220714
*END

*D_NET *350 0.00330962

*CONN
*I *686:Y O *C 65.105 68.585 *L 0 *D AOI22X1
*I *647:S0 I *C 40.745 63.945 *L 0.00372 *D MXI2XL

*CAP
1 *350:3 0.00137109
2 *350:4 0.00137109
3 *350:5 5.00681e-05
4 *350:6 0.000166894
5 *350:7 0.000233651
6 *350:8 0.000116825

*RES
1 *350:8 *647:S0 1.4
2 *350:7 *350:8 0.869981
3 *350:6 *350:7 0.869981
4 *350:5 *350:6 0.372849
5 *350:4 *350:5 1.4
6 *350:3 *350:4 10.1914
7 *350:1 *350:3 1.4
8 *350:1 *686:Y 1.4
9 *350:0 *350:1 0.220714
*END

*D_NET *351 0.00112062

*CONN
*I *643:S0 I *C 51.475 61.335 *L 0.00372 *D MXI2XL
*I *685:Y O *C 47.995 67.135 *L 0 *D AOI22X1

*CAP
1 *351:2 5.22741e-05
2 *351:4 0.000174247
3 *351:5 0.000174247
4 *351:6 5.22741e-05
5 *351:7 0.000200272
6 *351:8 0.000216962
7 *351:9 0.000133515
8 *351:10 0.000116825

*RES
1 *351:10 *685:Y 1.4
2 *351:9 *351:10 0.869981
3 *351:8 *351:9 0.124283
4 *351:7 *351:8 1.4914
5 *351:6 *351:7 1.4
6 *351:5 *351:6 0.372866
7 *351:4 *351:5 0.870021
8 *351:2 *351:4 0.372866
9 *351:1 *643:S0 1.4
10 *351:1 *351:2 1.4
11 *351:0 *351:1 0.220714
*END

*D_NET *352 0.00151748

*CONN
*I *684:Y O *C 49.445 63.945 *L 0 *D MX2X1
*I *562:A I *C 48.135 58.56 *L 0.00668 *D ADDFXL

*CAP
1 *352:0 0.000283719
2 *352:1 0.000317098
3 *352:2 5.22741e-05
4 *352:3 0.000116825
5 *352:4 6.96988e-05
6 *352:5 8.34468e-05
7 *352:6 0.000156822
8 *352:8 0.000156822
9 *352:9 8.25827e-05
10 *352:10 6.5158e-05
11 *352:11 6.65167e-05
12 *352:12 6.65167e-05

*RES
1 *352:12 *562:A 1.4
2 *352:11 *352:12 0.497153
3 *352:10 *352:11 1.4
4 *352:9 *352:10 0.497135
5 *352:8 *352:9 0.124289
6 *352:6 *352:8 0.99431
7 *352:5 *684:Y 1.4
8 *352:4 *352:6 0.124289
9 *352:3 *352:5 0.621415
10 *352:2 *352:4 0.372866
11 *352:1 *352:3 0.248566
12 *352:0 *352:2 1.4
13 *352:0 *352:1 2.11281
*END

*D_NET *353 0.00142102

*CONN
*I *683:Y O *C 42.485 67.135 *L 0 *D AOI22X1
*I *565:B I *C 46.255 61.045 *L 0.00625 *D ADDFX1

*CAP
1 *353:0 0.000226521
2 *353:1 0.000400544
3 *353:2 0.000226521
4 *353:3 0.000400544
5 *353:4 8.34468e-05
6 *353:6 8.34468e-05

*RES
1 *353:6 *565:B 1.4
2 *353:4 *353:6 0.621415
3 *353:3 *683:Y 1.4
4 *353:2 *353:4 1.4
5 *353:1 *353:3 2.98279
6 *353:0 *353:2 1.61575
7 *353:0 *353:1 1.4
*END

*D_NET *354 0.0018708

*CONN
*I *648:S0 I *C 45.385 63.945 *L 0.00372 *D MXI2XL
*I *682:Y O *C 59.885 67.135 *L 0 *D AOI22X1

*CAP
1 *354:1 0.000100136
2 *354:2 0.000100136
3 *354:3 0.000802005
4 *354:4 0.000802005
5 *354:5 3.32584e-05
6 *354:6 3.32584e-05

*RES
1 *354:6 *682:Y 1.4
2 *354:5 *354:6 0.248577
3 *354:4 *354:5 1.4
4 *354:3 *354:4 5.96571
5 *354:2 *354:3 1.4
6 *354:1 *354:2 0.745698
7 *648:S0 *354:1 1.4
*END

*D_NET *355 0.00122516

*CONN
*I *681:Y O *C 34.365 67.135 *L 0 *D AOI22X1
*I *568:B I *C 38.715 61.045 *L 0.00625 *D ADDFX1

*CAP
1 *355:0 8.34468e-05
2 *355:1 8.34468e-05
3 *355:2 5.22741e-05
4 *355:4 6.96988e-05
5 *355:5 0.000156822
6 *355:6 0.000156822
7 *355:7 6.96988e-05
8 *355:8 5.22741e-05
9 *355:9 1.66894e-05
10 *355:10 0.00025034
11 *355:11 0.000233651

*RES
1 *355:11 *568:B 1.4
2 *355:10 *355:11 1.73996
3 *355:9 *355:10 0.124283
4 *355:8 *355:9 1.4
5 *355:7 *355:8 0.372866
6 *355:6 *355:7 0.124289
7 *355:5 *355:6 0.99431
8 *355:4 *355:5 0.124289
9 *355:2 *355:4 0.372866
10 *355:1 *681:Y 1.4
11 *355:0 *355:2 1.4
12 *355:0 *355:1 0.621415
*END

*D_NET *356 0.00200198

*CONN
*I *680:Y O *C 25.375 73.805 *L 0 *D AOI22X1
*I *571:B I *C 31.175 61.045 *L 0.00625 *D ADDFX1

*CAP
1 *356:0 0.000235064
2 *356:1 0.000235064
3 *356:2 0.00029172
4 *356:4 0.00029172
5 *356:5 0.000474208
6 *356:6 0.000474208

*RES
1 *356:6 *571:B 1.4
2 *356:5 *356:6 3.53135
3 *356:4 *356:5 1.4
4 *356:2 *356:4 2.11291
5 *356:1 *680:Y 1.4
6 *356:0 *356:2 1.4
7 *356:0 *356:1 1.86424
*END

*D_NET *357 0.00392872

*CONN
*I *646:S0 I *C 35.235 63.945 *L 0.00372 *D MXI2XL
*I *679:Y O *C 67.715 63.365 *L 0 *D AOI22X1

*CAP
1 *357:1 1.66894e-05
2 *357:2 1.66894e-05
3 *357:4 0.000209096
4 *357:5 0.000226521
5 *357:6 0.000243946
6 *357:7 0.000243946
7 *357:8 0.000767894
8 *357:9 0.000766597
9 *357:10 0.000628966
10 *357:11 0.000628966
11 *357:12 6.45093e-05
12 *357:13 4.8382e-05
13 *357:14 3.32584e-05
14 *357:15 3.32584e-05

*RES
1 *357:15 *679:Y 1.4
2 *357:14 *357:15 0.248577
3 *357:13 *357:14 1.4
4 *357:12 *357:13 0.372849
5 *357:11 *357:12 0.124283
6 *357:10 *357:11 4.72275
7 *357:9 *357:10 0.124283
8 *357:8 *357:9 5.46863
9 *357:7 *357:8 0.124289
10 *357:6 *357:7 1.61575
11 *357:5 *357:6 0.124289
12 *357:4 *357:5 1.49146
13 *357:2 *357:4 1.4
14 *357:1 *646:S0 1.4
15 *357:1 *357:2 0.124283
16 *357:0 *357:1 0.0878571
*END

*D_NET *358 0.00134613

*CONN
*I *678:Y O *C 16.095 68.585 *L 0 *D AOI22X1
*I *574:B I *C 21.025 61.045 *L 0.00625 *D ADDFX1

*CAP
1 *358:0 4.70127e-05
2 *358:1 4.70127e-05
3 *358:2 0.000265621
4 *358:4 0.000265621
5 *358:5 0.000360431
6 *358:6 0.000360431

*RES
1 *358:6 *574:B 1.4
2 *358:5 *358:6 2.8585
3 *358:4 *358:5 1.4
4 *358:2 *358:4 2.11291
5 *358:1 *678:Y 1.4
6 *358:0 *358:2 1.4
7 *358:0 *358:1 0.372848
*END

*D_NET *359 0.00335786

*CONN
*I *650:S0 I *C 41.325 56.115 *L 0.00372 *D MXI2XL
*I *673:Y O *C 68.295 58.145 *L 0 *D AOI22X1

*CAP
1 *359:2 0.00132012
2 *359:4 0.00133624
3 *359:5 0.000161273
4 *359:6 0.000161273
5 *359:7 6.45093e-05
6 *359:8 4.8382e-05
7 *359:9 0.000133033
8 *359:10 0.000133033

*RES
1 *359:10 *673:Y 1.4
2 *359:9 *359:10 0.994306
3 *359:8 *359:9 1.4
4 *359:7 *359:8 0.372849
5 *359:6 *359:7 0.124283
6 *359:5 *359:6 1.11855
7 *359:4 *359:5 0.124283
8 *359:2 *359:4 9.81856
9 *359:1 *650:S0 1.4
10 *359:1 *359:2 1.4
11 *359:0 *359:1 0.220714
*END

*D_NET *360 0.0040892

*CONN
*I *644:S0 I *C 36.975 58.725 *L 0.00372 *D MXI2XL
*I *671:Y O *C 66.265 52.925 *L 0 *D AOI22X1

*CAP
1 *360:0 0.000116825
2 *360:1 5.22741e-05
3 *360:2 0.000116825
4 *360:3 6.96988e-05
5 *360:5 0.000191672
6 *360:6 0.000191672
7 *360:7 0.000759551
8 *360:8 0.000758254
9 *360:9 0.000709603
10 *360:10 0.000741857
11 *360:11 4.8382e-05
12 *360:12 0.000166292
13 *360:13 0.000166292

*RES
1 *360:13 *671:Y 1.4
2 *360:12 *360:13 1.24288
3 *360:11 *360:12 1.4
4 *360:10 *360:11 0.372849
5 *360:9 *360:10 5.34417
6 *360:8 *360:9 0.124283
7 *360:7 *360:8 5.34438
8 *360:6 *360:7 0.124289
9 *360:5 *360:6 1.24289
10 *360:3 *360:5 0.124289
11 *360:2 *644:S0 1.4
12 *360:1 *360:3 0.372866
13 *360:0 *360:2 0.869981
14 *360:0 *360:1 1.4
*END

*D_NET *361 0.000751373

*CONN
*I *577:B I *C 18.415 59.015 *L 0.00625 *D ADDFX1
*I *670:Y O *C 15.805 63.365 *L 0 *D AOI22X1

*CAP
1 *361:2 0.000140623
2 *361:4 0.000140623
3 *361:5 0.000235064
4 *361:6 0.000235064

*RES
1 *361:6 *670:Y 1.4
2 *361:5 *361:6 1.86424
3 *361:4 *361:5 1.4
4 *361:2 *361:4 1.1186
5 *361:1 *577:B 1.4
6 *361:1 *361:2 1.4
7 *361:0 *361:1 0.220714
*END

*D_NET *362 0.00360304

*CONN
*I *645:S0 I *C 34.655 58.725 *L 0.00372 *D MXI2XL
*I *669:Y O *C 65.975 58.145 *L 0 *D AOI22X1

*CAP
1 *362:2 0.00146285
2 *362:4 0.00147897
3 *362:5 0.000338674
4 *362:6 0.000322547

*RES
1 *362:7 *362:9 0.220714
2 *362:7 *669:Y 1.4
3 *362:6 *362:7 1.4
4 *362:5 *362:6 2.48566
5 *362:4 *362:5 0.124283
6 *362:2 *362:4 10.6887
7 *362:1 *645:S0 1.4
8 *362:1 *362:2 1.4
9 *362:0 *362:1 0.220714
*END

*D_NET *363 0.00533356

*CONN
*I *589:B1 I *C 30.885 58.435 *L 0.00283 *D AOI22X1
*I *586:A I *C 33.205 56.115 *L 0.0017 *D MXI2XL
*I *668:Y O *C 35.8975 56.405 *L 0 *D CLKINVX1
*I *645:B I *C 34.95 59.065 *L 0.00164 *D MXI2XL
*I *646:B I *C 35.53 64.285 *L 0.00164 *D MXI2XL
*I *650:A I *C 40.455 56.115 *L 0.0017 *D MXI2XL
*I *644:B I *C 37.27 59.065 *L 0.00164 *D MXI2XL
*I *647:B I *C 41.04 64.285 *L 0.00164 *D MXI2XL
*I *648:B I *C 45.68 64.285 *L 0.00164 *D MXI2XL
*I *643:A I *C 50.605 61.335 *L 0.0017 *D MXI2XL
*I *649:B I *C 50.9 64.285 *L 0.00164 *D MXI2XL

*CAP
1 *363:0 8.34468e-05
2 *363:1 0.000139398
3 *363:2 8.34468e-05
4 *363:3 0.00029622
5 *363:5 0.000156822
6 *363:6 5.00681e-05
7 *363:7 0.000183583
8 *363:8 5.00681e-05
9 *363:9 0.000350476
10 *363:10 3.33787e-05
11 *363:12 0.000166894
12 *363:13 8.34468e-05
13 *668:Y 6.96988e-05
14 *363:15 6.67574e-05
15 *363:16 3.33787e-05
16 *363:17 0.000156822
17 *363:18 0.000116825
18 *363:20 0.000104548
19 *363:21 6.67574e-05
20 *363:22 6.67574e-05
21 *363:23 0.000331069
22 *363:24 0.000139398
23 *363:25 8.34468e-05
24 *363:27 0.000609864
25 *650:A 0.000121973
26 *363:29 0.000100136
27 *363:30 0.000575015
28 *363:31 6.67574e-05
29 *363:32 8.34468e-05
30 *363:33 0.00029622
31 *363:34 6.67574e-05
32 *363:35 6.67574e-05
33 *363:37 0.000166894
34 *363:38 6.67574e-05
35 *363:40 8.34468e-05
36 *363:41 0.000100136
37 *363:43 1.66894e-05

*RES
1 *363:43 *649:B 1.4
2 *363:41 *643:A 1.4
3 *363:40 *363:43 0.124283
4 *363:38 *648:B 1.4
5 *363:37 *363:41 0.745698
6 *363:37 *363:40 0.497132
7 *363:35 *647:B 1.4
8 *363:34 *363:38 0.497132
9 *363:33 *363:37 1.4
10 *363:32 *644:B 1.4
11 *363:31 *363:35 0.497132
12 *363:30 *363:34 1.4
13 *363:30 *363:33 2.11291
14 *363:29 *363:32 0.621415
15 *363:27 *363:31 1.4
16 *363:27 *363:30 1.98862
17 *363:25 *363:29 0.124283
18 *363:24 *650:A 0.870021
19 *363:23 *363:27 2.36149
20 *363:22 *646:B 1.4
21 *363:21 *363:25 0.497132
22 *363:20 *363:24 0.124289
23 *363:18 *363:23 1.4
24 *363:18 *363:22 0.497132
25 *363:17 *363:21 1.4
26 *363:17 *363:20 0.621444
27 *363:16 *645:B 1.4
28 *363:15 *363:18 0.372849
29 *668:Y *363:17 0.497155
30 *363:13 *363:16 0.248566
31 *363:12 *363:15 0.124283
32 *363:10 *668:Y 1.4
33 *363:9 *363:13 0.372849
34 *363:9 *363:12 1.11855
35 *363:8 *586:A 1.4
36 *363:7 *363:10 0.248566
37 *363:7 *363:9 1.11855
38 *363:6 *363:8 0.372849
39 *363:5 *363:7 1.4
40 *363:3 *363:6 1.4
41 *363:3 *363:5 1.1186
42 *363:2 *589:B1 1.4
43 *363:1 *363:3 0.99431
44 *363:0 *363:2 0.621415
45 *363:0 *363:1 1.4
*END

*D_NET *364 0.0175503

*CONN
*I *651:B I *C 13.485 40.455 *L 0.00167 *D NAND2XL
*I *654:B I *C 15.225 40.455 *L 0.00167 *D NAND2XL
*I *573:A0 I *C 17.255 42.775 *L 0.00271 *D OAI21X1
*I *578:S0 I *C 16.965 50.605 *L 0.00371 *D MX2X1
*I *576:A0 I *C 12.905 56.405 *L 0.00271 *D OAI21X1
*I *570:A0 I *C 27.695 47.995 *L 0.00271 *D OAI21X1
*I *663:B I *C 29.145 58.725 *L 0.00167 *D NAND2XL
*I *661:B I *C 27.115 45.675 *L 0.00167 *D NAND2XL
*I *645:A I *C 33.785 58.725 *L 0.0017 *D MXI2XL
*I *586:B I *C 34.37 55.775 *L 0.00164 *D MXI2XL
*I *580:S0 I *C 32.915 53.795 *L 0.00371 *D MX2X1
*I *644:A I *C 36.105 58.725 *L 0.0017 *D MXI2XL
*I *650:B I *C 41.62 55.775 *L 0.00164 *D MXI2XL
*I *668:A I *C 35.525 56.405 *L 0.00273 *D CLKINVX1
*I *653:B I *C 40.745 45.675 *L 0.00167 *D NAND2XL
*I *646:A I *C 34.365 63.945 *L 0.0017 *D MXI2XL
*I *657:B I *C 44.225 48.285 *L 0.00167 *D NAND2XL
*I *567:A0 I *C 39.005 47.995 *L 0.00271 *D OAI21X1
*I *564:A0 I *C 45.095 47.995 *L 0.00271 *D OAI21X1
*I *647:A I *C 39.875 63.945 *L 0.0017 *D MXI2XL
*I *664:B I *C 49.735 53.505 *L 0.00167 *D NAND2XL
*I *559:A0 I *C 50.025 51.185 *L 0.00271 *D OAI21X1
*I *649:A I *C 49.735 63.945 *L 0.0017 *D MXI2XL
*I *648:A I *C 44.515 63.945 *L 0.0017 *D MXI2XL
*I *643:B I *C 51.77 60.995 *L 0.00164 *D MXI2XL
*I *692:B I *C 54.955 63.655 *L 0.00284 *D NAND2BX1
*I *658:B I *C 50.895 53.505 *L 0.00167 *D NAND2XL
*I *560:S0 I *C 51.765 50.605 *L 0.00371 *D MX2X1
*I *677:Y O *C 58.145 59.015 *L 0 *D OR2X1

*CAP
1 *364:2 9.54472e-05
2 *364:4 0.000206802
3 *364:5 0.000111355
4 *364:7 0.000151726
5 *364:10 0.000286593
6 *364:11 0.000151726
7 *364:13 0.000370885
8 *364:14 0.000387744
9 *364:15 0.000149945
10 *364:16 6.56524e-05
11 *364:17 5.05753e-05
12 *364:18 0.00068749
13 *364:20 0.000657715
14 *364:21 0.000218747
15 *364:22 0.000188972
16 *364:23 0.000251095
17 *364:24 0.000188051
18 *364:25 3.33787e-05
19 *364:26 0.000251095
20 *364:27 0.000188051
21 *364:28 5.00681e-05
22 *364:29 8.44151e-05
23 *364:31 0.000133515
24 *364:32 0.000119017
25 *364:33 0.000317098
26 *570:A0 3.46019e-05
27 *364:35 0.000155318
28 *364:36 0.000278795
29 *364:37 0.000200272
30 *364:38 0.000155318
31 *364:39 0.000418193
32 *364:42 8.34468e-05
33 *364:43 0.000435617
34 *364:44 0.000233651
35 *364:45 6.67574e-05
36 *364:46 0.00029622
37 *364:47 3.33787e-05
38 *364:48 0.000417234
39 *364:49 3.33787e-05
40 *364:50 5.00681e-05
41 *364:51 0.000441594
42 *364:52 0.000233651
43 *364:53 0.00026703
44 *364:56 3.33787e-05
45 *364:57 6.67574e-05
46 *364:58 0.000563534
47 *364:59 0.000166894
48 *364:60 6.67574e-05
49 *364:61 6.67574e-05
50 *364:63 3.33787e-05
51 *364:64 0.000311417
52 *364:65 0.000172576
53 *364:67 3.33787e-05
54 *364:68 6.67574e-05
55 *364:70 0.000242213
56 *364:71 0.000121107
57 *364:72 1.72576e-05
58 *364:74 1.66894e-05
59 *364:75 0.000328718
60 *364:79 0.000139398
61 *364:81 0.000276815
62 *364:87 0.000470467
63 *364:88 0.000155318
64 *364:91 0.000784111
65 *364:93 0.000308079
66 *364:94 0.000575015
67 *364:97 0.000191672
68 *364:98 0.00018614
69 *364:99 1.73009e-05
70 *364:100 0.00030132
71 *364:103 0.000139398
72 *647:A 0.000191672
73 *364:105 3.33787e-05
74 *559:A0 1.73009e-05
75 *364:108 0.000179347
76 *364:109 0.000166894
77 *648:A 0.000139398
78 *364:113 6.96988e-05
79 *364:114 1.66292e-05
80 *364:115 0.000166894
81 *364:116 0.000121973
82 *364:117 0.000216179
83 *364:119 5.22741e-05
84 *364:120 3.33787e-05
85 *364:121 0.00019955
86 *364:124 0.000203397
87 *364:125 3.33787e-05
88 *364:126 0.000177401
89 *364:127 0.000203397
90 *364:129 0.000177401
91 *364:131 3.32584e-05
92 *364:132 3.32584e-05

*RES
1 *364:132 *677:Y 1.4
2 *364:131 *364:132 0.248577
3 *364:129 *364:131 1.4
4 *364:127 *560:S0 1.4
5 *364:126 *364:129 1.36711
6 *364:125 *658:B 1.4
7 *364:124 *364:127 1.4914
8 *364:121 *364:126 1.4
9 *364:120 *364:125 0.248566
10 *364:119 *364:124 1.4
11 *364:117 *692:B 1.4
12 *364:117 *364:122 0.0878571
13 *364:117 *364:121 1.49146
14 *364:116 *364:120 1.4
15 *364:116 *364:119 0.372866
16 *364:115 *643:B 1.4
17 *364:114 *364:117 0.124288
18 *364:113 *364:116 0.497155
19 *364:109 *364:115 1.24283
20 *364:108 *364:114 1.4
21 *364:105 *364:113 1.4
22 *364:103 *648:A 0.99431
23 *364:101 *649:A 1.4
24 *364:101 *364:110 0.220714
25 *364:100 *364:109 1.4
26 *364:100 *364:108 1.36712
27 *364:99 *559:A0 0.124283
28 *364:98 *664:B 1.4
29 *364:98 *364:105 0.248566
30 *364:97 *647:A 1.36718
31 *364:95 *364:103 1.4
32 *364:95 *364:102 0.220714
33 *364:94 *364:101 1.4
34 *364:94 *364:100 0.870021
35 *364:93 *364:99 1.4
36 *364:93 *364:98 1.11855
37 *364:92 *364:97 1.4
38 *364:92 *364:96 0.220714
39 *364:91 *364:95 1.4
40 *364:91 *364:94 3.23151
41 *364:88 *364:93 1.11855
42 *364:87 *364:92 1.4
43 *364:87 *364:91 2.36149
44 *364:82 *564:A0 1.4
45 *364:82 *364:89 0.220714
46 *364:81 *364:88 1.4
47 *364:79 *364:87 0.99431
48 *364:77 *567:A0 1.4
49 *364:77 *364:85 0.220714
50 *364:76 *657:B 1.4
51 *364:76 *364:83 0.220714
52 *364:75 *364:82 1.4
53 *364:75 *364:81 1.98853
54 *364:74 *646:A 1.4
55 *364:74 *364:79 1.4
56 *364:72 *653:B 1.4
57 *364:71 *364:77 1.4
58 *364:70 *364:76 1.4
59 *364:70 *364:75 0.372849
60 *364:68 *364:74 0.124283
61 *364:67 *668:A 1.4
62 *364:65 *364:72 0.124283
63 *364:64 *364:71 0.86998
64 *364:64 *364:70 1.36711
65 *364:63 *650:B 1.4
66 *364:61 *364:68 0.372849
67 *364:60 *364:67 0.248566
68 *364:59 *644:A 1.4
69 *364:58 *364:65 1.11855
70 *364:58 *364:64 1.4
71 *364:57 *364:63 0.248566
72 *364:56 *580:S0 1.4
73 *364:53 *364:61 0.124283
74 *364:52 *364:60 0.248566
75 *364:52 *364:59 1.24283
76 *364:51 *364:58 2.9828
77 *364:51 *364:57 0.248566
78 *364:50 *364:56 0.248566
79 *364:49 *586:B 1.4
80 *364:48 *645:A 1.4
81 *364:48 *364:53 1.86424
82 *364:47 *364:52 0.248566
83 *364:46 *364:51 1.4
84 *364:45 *364:50 0.124283
85 *364:44 *364:49 0.248566
86 *364:44 *364:48 1.24283
87 *364:43 *364:47 1.4
88 *364:43 *364:46 2.11291
89 *364:42 *364:45 0.372849
90 *364:42 *364:44 0.248566
91 *364:39 *364:43 0.99431
92 *364:39 *364:42 1.4
93 *364:38 *661:B 1.4
94 *364:37 *663:B 1.4
95 *364:36 *364:39 1.98862
96 *364:35 *364:38 1.11855
97 *364:33 *364:37 1.4914
98 *364:33 *364:36 1.4
99 *364:32 *364:35 1.4
100 *364:32 *570:A0 0.248566
101 *364:31 *364:33 0.869981
102 *364:29 *364:32 0.621423
103 *364:28 *364:31 0.124283
104 *364:27 *576:A0 1.4
105 *364:26 *364:29 1.4
106 *364:25 *364:28 0.248566
107 *364:24 *364:27 1.49139
108 *364:23 *364:26 1.86432
109 *364:22 *364:25 1.4
110 *364:21 *364:24 1.4
111 *364:20 *364:23 1.4
112 *364:20 *364:22 1.36718
113 *364:18 *364:21 1.74004
114 *364:18 *364:20 3.72866
115 *364:17 *578:S0 1.4
116 *364:16 *364:18 1.4
117 *364:15 *364:17 0.372866
118 *364:15 *364:16 0.497146
119 *364:14 *364:15 0.248578
120 *364:13 *364:14 2.61006
121 *364:11 *364:13 0.124289
122 *364:10 *573:A0 1.4
123 *364:10 *364:11 0.99431
124 *364:7 *364:10 1.1186
125 *364:6 *654:B 1.4
126 *364:6 *364:8 0.220714
127 *364:5 *364:7 1.4
128 *364:4 *364:6 1.4
129 *364:4 *364:5 0.870021
130 *364:2 *364:4 0.745733
131 *364:1 *651:B 1.4
132 *364:1 *364:2 1.4
133 *364:0 *364:1 0.220714
*END

*D_NET *365 0.00055134

*CONN
*I *521:D I *C 60.175 53.215 *L 0.00276 *D SDFFRHQX1
*I *667:Y O *C 63.1575 53.505 *L 0 *D INVXL

*CAP
1 *365:1 1.66292e-05
2 *365:2 1.66292e-05
3 *365:4 0.000193528
4 *365:5 0.000193528
5 *365:6 3.32584e-05
6 *365:7 3.32584e-05
7 *365:8 3.22547e-05
8 *667:Y 3.22547e-05

*RES
1 *365:8 *667:Y 0.248566
2 *365:7 *365:8 1.4
3 *365:6 *365:7 0.248577
4 *365:5 *365:6 1.4
5 *365:4 *365:5 1.4914
6 *365:2 *365:4 1.4
7 *365:1 *521:D 1.4
8 *365:1 *365:2 0.124288
9 *365:0 *365:1 0.212143
*END

*D_NET *366 0.0238022

*CONN
*I *641:S0 I *C 12.615 6.815 *L 0.00371 *D MX2X1
*I *634:S0 I *C 15.225 6.815 *L 0.00371 *D MX2X1
*I *637:S0 I *C 23.345 8.845 *L 0.00371 *D MX2X1
*I *632:S0 I *C 3.915 12.035 *L 0.00371 *D MX2X1
*I *633:S0 I *C 37.265 3.625 *L 0.00371 *D MX2X1
*I *631:S0 I *C 5.945 17.255 *L 0.00371 *D MX2X1
*I *626:S0 I *C 40.165 3.625 *L 0.00371 *D MX2X1
*I *630:S0 I *C 5.945 24.505 *L 0.00371 *D MX2X1
*I *627:S0 I *C 57.565 8.845 *L 0.00371 *D MX2X1
*I *628:S0 I *C 68.585 8.845 *L 0.00371 *D MX2X1
*I *635:S0 I *C 74.965 12.035 *L 0.00371 *D MX2X1
*I *642:S0 I *C 5.945 34.945 *L 0.00371 *D MX2X1
*I *629:S0 I *C 75.545 3.625 *L 0.00371 *D MX2X1
*I *640:S0 I *C 5.075 43.355 *L 0.00371 *D MX2X1
*I *636:S0 I *C 75.545 17.255 *L 0.00371 *D MX2X1
*I *638:S0 I *C 76.995 24.505 *L 0.00371 *D MX2X1
*I *625:S0 I *C 76.995 32.915 *L 0.00371 *D MX2X1
*I *639:S0 I *C 68.585 38.135 *L 0.00371 *D MX2X1
*I *676:Y O *C 52.925 53.795 *L 0 *D OR2X1
*I *667:A I *C 62.795 53.4425 *L 0.00163 *D INVXL

*CAP
1 *366:2 0.000562435
2 *366:4 0.000349622
3 *366:5 0.000456028
4 *366:6 0.000258416
5 *366:8 4.70455e-05
6 *366:9 0.000228014
7 *366:12 6.27273e-05
8 *366:13 0.000212813
9 *366:14 0.0001725
10 *366:15 0.000188182
11 *366:16 0.0001725
12 *366:17 9.4091e-05
13 *366:18 9.4091e-05
14 *366:19 9.4091e-05
15 *366:21 0.000815632
16 *366:22 0.000219546
17 *366:23 0.000971548
18 *366:24 0.000141136
19 *366:26 0.000138592
20 *366:27 3.46481e-05
21 *366:28 7.60047e-05
22 *366:29 0.000207889
23 *366:30 6.19999e-05
24 *366:31 7.60047e-05
25 *366:32 0.000207889
26 *366:33 6.19999e-05
27 *366:34 0.000141136
28 *366:35 0.000859894
29 *366:37 0.000138592
30 *366:39 0.000470455
31 *366:40 0.00084257
32 *366:41 0.000138592
33 *366:42 0.000392046
34 *366:44 0.000195942
35 *366:46 6.27273e-05
36 *366:47 7.60047e-05
37 *366:48 0.000195942
38 *366:52 7.60047e-05
39 *366:53 0.00060977
40 *366:55 0.000141136
41 *366:56 0.000690003
42 *366:57 0.000156818
43 *366:58 0.000112326
44 *366:60 0.000385979
45 *366:61 0.000208606
46 *366:64 0.000387156
47 *366:65 0.000192559
48 *366:66 6.74337e-05
49 *366:67 0.000144419
50 *366:68 5.05753e-05
51 *366:69 0.000128373
52 *366:70 7.95393e-05
53 *366:71 0.000310241
54 *366:72 7.95393e-05
55 *366:73 0.000244927
56 *366:74 0.000228599
57 *366:75 0.000101151
58 *366:76 6.53139e-05
59 *366:78 0.000163285
60 *366:79 0.000590045
61 *366:80 0.000195942
62 *366:81 4.89854e-05
63 *366:82 0.000505753
64 *366:84 0.000195942
65 *366:86 1.68584e-05
66 *366:87 8.16424e-05
67 *366:89 0.000114299
68 *366:90 6.53139e-05
69 *366:92 0.00021227
70 *366:93 0.00021227
71 *366:94 6.53139e-05
72 *366:95 4.89854e-05
73 *366:96 0.000112326
74 *366:97 0.000112326
75 *366:98 0.000114299
76 *366:99 0.000130628
77 *366:100 0.00030588
78 *366:102 0.000306921
79 *366:103 0.000173691
80 *366:104 0.000191061
81 *366:105 8.68457e-05
82 *366:106 0.000260537
83 *366:107 0.00020843
84 *366:109 0.00014911
85 *366:110 0.000165678
86 *366:111 0.000215381
87 *366:112 0.000215381
88 *366:113 0.00014911
89 *366:114 0.000132542
90 *366:115 0.000104215
91 *366:116 0.000156322
92 *366:117 5.21074e-05
93 *366:119 0.000182246
94 *366:120 0.000182246
95 *366:121 0.000121584
96 *366:122 0.000138953
97 *366:123 0.000243168
98 *366:124 0.000243168
99 *366:125 6.94766e-05
100 *366:126 6.94766e-05
101 *366:127 0.00020843
102 *366:128 0.000243168
103 *366:129 8.68457e-05
104 *366:130 6.94766e-05
105 *366:131 0.000191061
106 *366:132 0.000173691
107 *366:133 0.000100885
108 *366:134 0.000100145
109 *366:135 6.65167e-05
110 *366:136 4.98875e-05
111 *366:137 0.000112891
112 *366:138 0.000661221
113 *366:139 0.000548329
114 *366:140 4.98875e-05
115 *366:142 4.98875e-05

*RES
1 *366:142 *667:A 1.4
2 *366:141 *366:144 0.220714
3 *366:141 *676:Y 1.4
4 *366:140 *366:142 0.372865
5 *366:139 *366:141 1.4
6 *366:138 *366:140 1.4
7 *366:138 *366:139 4.22562
8 *366:137 *366:138 0.869981
9 *366:136 *366:137 1.4
10 *366:135 *366:136 0.372865
11 *366:134 *366:135 0.124288
12 *366:133 *366:134 0.621439
13 *366:132 *366:133 0.124283
14 *366:131 *366:132 1.11855
15 *366:130 *366:131 0.248566
16 *366:129 *366:130 0.248566
17 *366:128 *366:129 0.372849
18 *366:127 *366:128 1.36711
19 *366:126 *366:127 0.124283
20 *366:125 *366:126 0.372849
21 *366:124 *366:125 0.124283
22 *366:123 *366:124 1.61568
23 *366:122 *366:123 0.124283
24 *366:121 *366:122 0.86998
25 *366:120 *366:121 1.4
26 *366:119 *366:120 1.36711
27 *366:117 *366:119 1.4
28 *366:116 *639:S0 1.4
29 *366:116 *366:117 0.372849
30 *366:115 *366:116 0.745697
31 *366:114 *366:115 1.4
32 *366:113 *366:114 0.994264
33 *366:112 *366:113 0.124283
34 *366:111 *366:112 1.4914
35 *366:110 *366:111 0.124283
36 *366:109 *366:110 1.11855
37 *366:107 *366:109 1.4
38 *366:106 *625:S0 1.4
39 *366:106 *366:107 1.49139
40 *366:105 *366:106 0.372849
41 *366:104 *366:105 0.248566
42 *366:103 *366:104 1.11855
43 *366:102 *366:103 0.124283
44 *366:100 *366:102 2.11284
45 *366:99 *638:S0 1.4
46 *366:99 *366:100 0.124289
47 *366:98 *366:99 0.870021
48 *366:97 *366:98 1.4
49 *366:96 *366:97 0.869981
50 *366:95 *366:96 1.4
51 *366:94 *366:95 0.372866
52 *366:93 *366:94 0.124289
53 *366:92 *366:93 1.49146
54 *366:90 *366:92 0.124289
55 *366:89 *636:S0 1.4
56 *366:89 *366:90 0.372866
57 *366:87 *366:89 0.497155
58 *366:86 *640:S0 1.4
59 *366:84 *366:87 0.124289
60 *366:82 *366:86 0.124289
61 *366:81 *629:S0 1.4
62 *366:80 *366:84 1.36718
63 *366:79 *642:S0 1.4
64 *366:79 *366:82 3.60437
65 *366:78 *366:81 0.372866
66 *366:76 *366:80 0.124289
67 *366:75 *366:79 0.745732
68 *366:74 *366:78 0.870021
69 *366:73 *635:S0 1.4
70 *366:73 *366:76 0.372866
71 *366:72 *366:75 1.4
72 *366:71 *366:74 0.870021
73 *366:71 *366:73 1.49146
74 *366:70 *366:72 0.621444
75 *366:69 *366:71 1.4
76 *366:68 *366:70 1.4
77 *366:67 *366:69 0.994264
78 *366:66 *366:68 0.372866
79 *366:65 *366:67 0.124283
80 *366:64 *366:66 0.124289
81 *366:61 *366:65 1.36711
82 *366:60 *366:64 2.73435
83 *366:59 *628:S0 1.4
84 *366:59 *366:62 0.220714
85 *366:58 *366:61 0.248566
86 *366:57 *366:60 0.124289
87 *366:56 *366:59 1.4
88 *366:56 *366:58 0.621415
89 *366:55 *366:57 1.1186
90 *366:53 *366:56 4.72275
91 *366:52 *366:55 1.4
92 *366:48 *627:S0 1.4
93 *366:48 *366:53 1.4
94 *366:47 *366:52 0.621444
95 *366:46 *630:S0 1.4
96 *366:45 *626:S0 1.4
97 *366:45 *366:49 0.220714
98 *366:44 *366:48 1.49146
99 *366:42 *366:47 1.4
100 *366:42 *366:46 0.497155
101 *366:41 *366:45 1.4
102 *366:40 *366:44 1.4
103 *366:39 *631:S0 1.4
104 *366:39 *366:42 2.61006
105 *366:37 *366:41 0.994263
106 *366:35 *366:40 6.21415
107 *366:34 *366:39 1.1186
108 *366:33 *633:S0 1.4
109 *366:33 *366:37 1.4
110 *366:33 *366:36 0.220714
111 *366:32 *366:35 0.124283
112 *366:31 *366:34 1.4
113 *366:30 *366:33 0.497134
114 *366:29 *366:32 1.36711
115 *366:28 *366:31 0.621444
116 *366:27 *366:30 1.4
117 *366:26 *366:29 0.124283
118 *366:24 *366:28 1.4
119 *366:23 *366:27 0.248566
120 *366:23 *366:26 0.86998
121 *366:22 *632:S0 1.4
122 *366:22 *366:24 1.1186
123 *366:21 *366:23 5.96562
124 *366:19 *366:22 0.621444
125 *366:18 *366:21 1.4
126 *366:17 *637:S0 1.4
127 *366:16 *366:19 0.124289
128 *366:15 *366:18 0.745733
129 *366:15 *366:17 0.745733
130 *366:14 *366:16 1.24289
131 *366:13 *366:15 1.4
132 *366:12 *366:14 0.124289
133 *366:9 *366:13 1.74004
134 *366:8 *366:12 0.372866
135 *366:7 *634:S0 1.4
136 *366:7 *366:10 0.220714
137 *366:6 *366:9 0.124289
138 *366:5 *366:8 1.4
139 *366:4 *366:7 1.4
140 *366:4 *366:6 1.98862
141 *366:2 *366:5 3.72866
142 *366:2 *366:4 0.870021
143 *366:1 *641:S0 1.4
144 *366:1 *366:2 1.4
145 *366:0 *366:1 0.220714
*END

*D_NET *367 0.0117312

*CONN
*I *662:B I *C 39.585 45.675 *L 0.00167 *D NAND2XL
*I *581:S0 I *C 40.165 50.605 *L 0.00371 *D MX2X1
*I *566:A0 I *C 37.555 45.965 *L 0.00271 *D OAI21X1
*I *659:B I *C 38.425 43.065 *L 0.00167 *D NAND2XL
*I *569:A0 I *C 28.855 51.185 *L 0.00271 *D OAI21X1
*I *579:S0 I *C 19.575 50.605 *L 0.00371 *D MX2X1
*I *563:A0 I *C 46.835 51.185 *L 0.00271 *D OAI21X1
*I *656:B I *C 19.575 53.505 *L 0.00167 *D NAND2XL
*I *660:B I *C 48.865 50.895 *L 0.00167 *D NAND2XL
*I *575:A0 I *C 18.995 42.775 *L 0.00271 *D OAI21X1
*I *664:A I *C 49.155 53.505 *L 0.00157 *D NAND2XL
*I *655:B I *C 21.315 43.065 *L 0.00167 *D NAND2XL
*I *675:Y O *C 56.115 59.015 *L 0 *D OR3X1
*I *572:A0 I *C 22.185 45.965 *L 0.00271 *D OAI21X1
*I *561:S0 I *C 55.245 43.355 *L 0.00371 *D MX2X1
*I *558:A0 I *C 53.505 42.775 *L 0.00271 *D OAI21X1
*I *652:B I *C 54.375 40.455 *L 0.00167 *D NAND2XL

*CAP
1 *367:1 0.000189833
2 *367:2 0.000224348
3 *367:3 0.000121107
4 *367:5 0.000138061
5 *367:6 0.000121107
6 *367:7 0.000103545
7 *367:8 3.45151e-05
8 *367:9 0.000276815
9 *367:11 6.90303e-05
10 *367:13 8.65047e-05
11 *367:14 0.000276815
12 *367:15 0.000120803
13 *367:16 8.65047e-05
14 *367:17 0.000588232
15 *367:18 0.000103545
16 *367:19 0.000155708
17 *367:20 0.000826153
18 *367:21 5.17727e-05
19 *367:22 0.000155708
20 *367:23 0.00027113
21 *367:24 3.45151e-05
22 *367:25 3.45151e-05
23 *367:26 6.92037e-05
24 *367:27 0.000127263
25 *367:28 3.45151e-05
26 *367:30 0.000103806
27 *367:31 0.000111355
28 *367:32 0.000155708
29 *367:33 6.92037e-05
30 *367:35 0.000213816
31 *569:A0 0.000155708
32 *367:37 0.000173009
33 *367:39 0.000138407
34 *367:40 0.00016324
35 *367:41 6.74337e-05
36 *367:43 0.000173009
37 *563:A0 0.000138407
38 *367:46 0.000202301
39 *367:47 6.92037e-05
40 *367:48 0.000202301
41 *367:49 5.19028e-05
42 *367:50 0.00021916
43 *367:51 1.72576e-05
44 *367:52 0.000236018
45 *367:53 0.000170019
46 *367:56 3.37169e-05
47 *367:58 0.000152761
48 *367:59 0.000127263
49 *367:60 0.000400678
50 *367:62 0.000127263
51 *367:63 0.000400678
52 *367:64 3.37169e-05
53 *367:65 0.000592011
54 *367:66 0.000101151
55 *367:67 0.000282696
56 *367:68 0.000326684
57 *367:69 0.000101151
58 *367:72 0.000364752
59 *367:73 0.000118009
60 *367:74 0.000382121
61 *367:75 8.42922e-05
62 *367:76 8.68457e-05
63 *367:77 1.59079e-05
64 *367:78 6.94766e-05
65 *572:A0 1.59079e-05
66 *367:80 3.47383e-05
67 *367:82 6.94766e-05
68 *367:83 0.000121584
69 *367:84 0.000104215
70 *367:85 0.000191061
71 *367:86 3.47383e-05
72 *367:87 0.000173691
73 *367:89 5.21074e-05

*RES
1 *367:89 *652:B 1.4
2 *367:87 *367:89 0.372849
3 *367:86 *558:A0 1.4
4 *367:85 *367:87 0.86998
5 *367:85 *367:86 0.248566
6 *367:84 *367:85 0.248566
7 *367:83 *367:84 0.497132
8 *367:82 *367:83 0.372849
9 *367:80 *367:82 0.124283
10 *367:78 *561:S0 1.4
11 *367:78 *367:80 0.124283
12 *367:77 *572:A0 0.124289
13 *367:76 *367:78 0.372849
14 *367:75 *367:77 1.4
15 *367:74 *367:76 0.248566
16 *367:73 *367:75 0.621444
17 *367:72 *367:74 2.48566
18 *367:69 *367:73 0.248578
19 *367:68 *367:72 0.124283
20 *367:67 *675:Y 1.4
21 *367:66 *655:B 1.4
22 *367:66 *367:69 0.497155
23 *367:65 *367:68 2.23712
24 *367:65 *367:67 2.1129
25 *367:64 *367:66 0.248578
26 *367:63 *367:65 1.4
27 *367:62 *367:64 1.4
28 *367:60 *367:63 2.98285
29 *367:59 *367:62 0.99431
30 *367:58 *664:A 1.4
31 *367:58 *367:60 1.4
32 *367:56 *367:59 1.4
33 *367:53 *367:58 1.11855
34 *367:52 *575:A0 1.4
35 *367:52 *367:56 0.248578
36 *367:51 *660:B 1.4
37 *367:51 *367:54 0.220714
38 *367:51 *367:53 0.124283
39 *367:50 *367:52 1.49146
40 *367:49 *367:51 1.4
41 *367:48 *367:50 0.124289
42 *367:47 *367:49 0.372849
43 *367:46 *367:48 1.36718
44 *367:43 *367:47 0.124283
45 *367:41 *367:46 0.124289
46 *367:40 *656:B 1.4
47 *367:39 *563:A0 0.994263
48 *367:37 *367:43 1.11855
49 *367:35 *579:S0 1.4
50 *367:35 *367:41 0.372866
51 *367:35 *367:40 1.24286
52 *367:34 *367:39 1.4
53 *367:34 *367:38 0.220714
54 *367:33 *367:37 0.124283
55 *367:32 *569:A0 1.11855
56 *367:31 *367:35 1.4
57 *367:30 *367:34 1.4
58 *367:30 *367:33 0.372849
59 *367:28 *367:32 1.4
60 *367:27 *367:31 0.870021
61 *367:26 *367:30 0.372849
62 *367:25 *659:B 1.4
63 *367:24 *367:28 0.248567
64 *367:23 *367:27 0.124289
65 *367:22 *367:26 0.124283
66 *367:21 *367:25 0.248567
67 *367:20 *367:24 1.4
68 *367:20 *367:23 1.98862
69 *367:19 *367:22 0.994263
70 *367:18 *367:21 0.124283
71 *367:17 *367:20 4.10134
72 *367:16 *367:19 0.124283
73 *367:15 *367:18 0.621417
74 *367:14 *367:17 0.124283
75 *367:13 *367:16 0.497132
76 *367:11 *367:15 0.248567
77 *367:9 *367:14 1.86424
78 *367:9 *367:13 0.124283
79 *367:8 *566:A0 1.4
80 *367:8 *367:11 0.248567
81 *367:7 *581:S0 1.4
82 *367:7 *367:9 1.4
83 *367:6 *367:8 1.4
84 *367:5 *367:7 0.7457
85 *367:3 *367:6 0.86998
86 *367:2 *367:5 0.248567
87 *367:1 *662:B 1.4
88 *367:1 *367:3 1.4
89 *367:1 *367:2 1.36712
90 *367:0 *367:1 0.220714
*END

*D_NET *368 0.000371578

*CONN
*I *666:Y O *C 30.9675 56.115 *L 0 *D INVXL
*I *589:B0 I *C 31.175 58.435 *L 0.00265 *D AOI22X1

*CAP
1 *666:Y 3.48494e-05
2 *368:1 3.48494e-05
3 *368:2 0.000133515
4 *368:3 0.000133515
5 *368:4 1.74247e-05
6 *589:B0 1.74247e-05

*RES
1 *368:4 *589:B0 0.124289
2 *368:3 *368:4 1.4
3 *368:2 *368:3 0.994264
4 *368:1 *368:2 1.4
5 *666:Y *368:1 0.248578
*END

*D_NET *369 0.00187995

*CONN
*I *666:A I *C 30.605 56.1775 *L 0.00163 *D INVXL
*I *591:A I *C 32.045 56.405 *L 0.00162 *D NOR2XL
*I *674:Y O *C 26.535 61.915 *L 0 *D AOI22X1
*I *663:A I *C 28.565 58.725 *L 0.00157 *D NAND2XL
*I *588:A0 I *C 32.335 58.435 *L 0.00265 *D AOI21X1

*CAP
1 *369:2 0.000226521
2 *369:3 0.000139398
3 *369:4 5.22741e-05
4 *369:5 0.000191672
5 *369:6 0.000139398
6 *369:7 3.48494e-05
7 *369:8 0.000133515
8 *369:9 3.33787e-05
9 *666:A 1.74247e-05
10 *369:11 0.000283719
11 *369:12 5.00681e-05
12 *369:15 0.000150204
13 *369:16 0.000121973
14 *369:17 0.000100136
15 *663:A 0.000121973
16 *369:20 8.34468e-05

*RES
1 *369:20 *588:A0 1.4
2 *369:17 *369:20 0.621415
3 *369:16 *663:A 0.870021
4 *369:15 *674:Y 1.4
5 *369:12 *369:17 0.124283
6 *369:11 *369:16 1.4
7 *369:11 *369:15 1.11855
8 *369:9 *591:A 1.4
9 *369:9 *369:13 0.220714
10 *369:9 *369:12 0.248566
11 *369:8 *369:11 0.994264
12 *369:7 *666:A 0.124289
13 *369:6 *369:9 1.4
14 *369:5 *369:8 1.4
15 *369:4 *369:7 0.124289
16 *369:3 *369:6 0.99431
17 *369:2 *369:5 1.36718
18 *369:2 *369:4 0.248578
19 *369:1 *369:3 1.4
20 *369:1 *369:2 1.4
21 *369:0 *369:1 0.220714
*END

*D_NET *370 0.00128391

*CONN
*I *672:Y O *C 13.485 61.915 *L 0 *D AOI22X1
*I *596:A I *C 16.675 61.625 *L 0.00162 *D NOR2XL
*I *597:A I *C 16.385 56.115 *L 0.00157 *D NAND2XL

*CAP
1 *370:1 3.13418e-05
2 *370:2 9.40254e-05
3 *370:3 0.000109696
4 *370:4 0.000297747
5 *370:5 0.000266405
6 *370:6 0.000109373
7 *370:7 6.26836e-05
8 *596:A 0.000109373
9 *370:9 4.70127e-05
10 *370:10 7.81239e-05
11 *597:A 7.81239e-05

*RES
1 *370:10 *597:A 0.621444
2 *370:9 *370:10 1.4
3 *370:7 *370:9 0.372848
4 *370:6 *596:A 0.870021
5 *370:5 *370:7 0.124283
6 *370:4 *370:6 1.4
7 *370:4 *370:5 1.98852
8 *370:3 *370:4 0.372848
9 *370:2 *370:3 0.497131
10 *370:1 *370:2 0.248565
11 *672:Y *370:1 1.4
*END

*D_NET *371 0.00141653

*CONN
*I *520:D I *C 59.885 56.405 *L 0.00276 *D SDFFRHQX1
*I *664:Y O *C 49.735 52.925 *L 0 *D NAND2XL

*CAP
1 *371:2 0.000558059
2 *371:4 0.000558059
3 *371:5 0.000150204
4 *371:6 0.000150204

*RES
1 *371:6 *664:Y 1.4
2 *371:5 *371:6 1.11855
3 *371:4 *371:5 1.4
4 *371:2 *371:4 4.22567
5 *371:1 *520:D 1.4
6 *371:1 *371:2 1.4
7 *371:0 *371:1 0.220714
*END

*D_NET *372 6.96988e-05

*CONN
*I *663:Y O *C 29.145 58.145 *L 0 *D NAND2XL
*I *589:A0 I *C 30.015 58.725 *L 0.00264 *D AOI22X1

*CAP
1 *663:Y 3.48494e-05
2 *589:A0 3.48494e-05

*RES
1 *663:Y *589:A0 0.248578
*END

*D_NET *373 0.00193588

*CONN
*I *569:B0 I *C 29.725 51.185 *L 0.0028 *D OAI21X1
*I *662:Y O *C 39.585 46.255 *L 0 *D NAND2XL

*CAP
1 *373:1 3.45151e-05
2 *373:2 3.45151e-05
3 *373:3 0.000138407
4 *373:4 0.000138407
5 *373:5 0.000224348
6 *373:6 0.000224348
7 *373:7 0.000467125
8 *373:8 0.000467125
9 *373:9 0.000103545
10 *373:10 0.000103545

*RES
1 *373:10 *662:Y 1.4
2 *373:9 *373:10 0.7457
3 *373:8 *373:9 1.4
4 *373:7 *373:8 3.35564
5 *373:6 *373:7 1.4
6 *373:5 *373:6 1.61568
7 *373:4 *373:5 1.4
8 *373:3 *373:4 0.994263
9 *373:2 *373:3 1.4
10 *373:1 *373:2 0.248567
11 *569:B0 *373:1 1.4
*END

*D_NET *374 0.000414182

*CONN
*I *661:Y O *C 27.115 46.255 *L 0 *D NAND2XL
*I *570:B0 I *C 28.565 47.995 *L 0.0028 *D OAI21X1

*CAP
1 *374:1 1.72576e-05
2 *374:2 0.000120803
3 *374:3 0.000155318
4 *374:4 8.62879e-05
5 *374:5 3.45151e-05

*RES
1 *374:5 *570:B0 1.4
2 *374:4 *374:5 0.248567
3 *374:3 *374:4 0.37285
4 *374:2 *374:3 0.7457
5 *374:1 *374:2 0.124283
6 *661:Y *374:1 1.4
*END

*D_NET *375 0.000345151

*CONN
*I *563:B0 I *C 47.705 51.185 *L 0.0028 *D OAI21X1
*I *660:Y O *C 48.865 51.475 *L 0 *D NAND2XL

*CAP
1 *375:1 6.90303e-05
2 *375:2 0.000138061
3 *375:3 0.000103545
4 *375:4 3.45151e-05

*RES
1 *375:4 *660:Y 1.4
2 *375:3 *375:4 0.248567
3 *375:2 *375:3 0.497134
4 *375:1 *375:2 0.497134
5 *563:B0 *375:1 1.4
*END

*D_NET *376 0.000310636

*CONN
*I *566:B0 I *C 38.425 45.965 *L 0.0028 *D OAI21X1
*I *659:Y O *C 38.425 42.485 *L 0 *D NAND2XL

*CAP
1 *376:0 0.000120803
2 *376:1 5.17727e-05
3 *376:2 0.000103545
4 *376:3 3.45151e-05

*RES
1 *376:3 *659:Y 1.4
2 *376:2 *566:B0 1.4
3 *376:1 *376:3 0.248567
4 *376:0 *376:2 0.7457
5 *376:0 *376:1 0.124283
*END

*D_NET *377 0.000238765

*CONN
*I *559:B0 I *C 50.895 51.185 *L 0.0028 *D OAI21X1
*I *658:Y O *C 50.895 52.925 *L 0 *D NAND2XL

*CAP
1 *377:1 0.000119382
2 *377:2 0.000119382

*RES
1 *377:2 *658:Y 1.4
2 *377:1 *377:2 0.869983
3 *559:B0 *377:1 1.4
*END

*D_NET *378 0.0222453

*CONN
*I *605:S0 I *C 10.005 76.705 *L 0.00371 *D MX2X1
*I *598:S0 I *C 15.515 76.705 *L 0.00371 *D MX2X1
*I *590:S0 I *C 8.265 74.675 *L 0.00371 *D MX2X1
*I *606:S0 I *C 20.445 74.675 *L 0.00371 *D MX2X1
*I *603:S0 I *C 12.615 64.235 *L 0.00371 *D MX2X1
*I *604:S0 I *C 3.335 69.455 *L 0.00371 *D MX2X1
*I *602:S0 I *C 21.605 69.455 *L 0.00371 *D MX2X1
*I *595:S0 I *C 3.045 59.015 *L 0.00371 *D MX2X1
*I *594:S0 I *C 5.945 55.825 *L 0.00371 *D MX2X1
*I *593:S0 I *C 27.115 74.675 *L 0.00371 *D MX2X1
*I *599:S0 I *C 28.565 76.705 *L 0.00371 *D MX2X1
*I *607:S0 I *C 31.175 76.705 *L 0.00371 *D MX2X1
*I *601:S0 I *C 37.845 76.705 *L 0.00371 *D MX2X1
*I *608:S0 I *C 40.745 74.675 *L 0.00371 *D MX2X1
*I *611:S0 I *C 45.095 71.485 *L 0.00371 *D MX2X1
*I *592:S0 I *C 50.605 76.705 *L 0.00371 *D MX2X1
*I *600:S0 I *C 36.105 66.265 *L 0.00371 *D MX2X1
*I *624:S0 I *C 53.505 76.705 *L 0.00371 *D MX2X1
*I *623:S0 I *C 56.115 76.705 *L 0.00371 *D MX2X1
*I *622:S0 I *C 59.885 74.675 *L 0.00371 *D MX2X1
*I *620:S0 I *C 66.555 74.675 *L 0.00371 *D MX2X1
*I *665:Y O *C 58.725 61.335 *L 0 *D AND4X1
*I *692:AN I *C 55.825 63.655 *L 0.00178 *D NAND2BX1
*I *621:S0 I *C 70.035 76.705 *L 0.00371 *D MX2X1
*I *619:S0 I *C 72.645 76.705 *L 0.00371 *D MX2X1
*I *618:S0 I *C 75.255 76.705 *L 0.00371 *D MX2X1
*I *616:S0 I *C 76.415 71.485 *L 0.00371 *D MX2X1
*I *609:S0 I *C 74.385 59.015 *L 0.00371 *D MX2X1
*I *617:S0 I *C 76.415 69.455 *L 0.00371 *D MX2X1
*I *613:S0 I *C 71.775 59.015 *L 0.00371 *D MX2X1
*I *614:S0 I *C 74.675 55.825 *L 0.00371 *D MX2X1
*I *612:S0 I *C 77.285 55.825 *L 0.00371 *D MX2X1
*I *615:S0 I *C 77.575 53.795 *L 0.00371 *D MX2X1
*I *610:S0 I *C 78.155 50.605 *L 0.00371 *D MX2X1

*CAP
1 *378:2 0.00035937
2 *378:4 0.000562492
3 *378:5 6.24991e-05
4 *378:6 0.000265621
5 *378:8 0.000109696
6 *378:9 7.83545e-05
7 *378:12 0.000736533
8 *378:13 0.000156709
9 *378:14 0.000626836
10 *378:16 9.40254e-05
11 *378:17 3.13418e-05
12 *378:18 0.000468743
13 *378:19 0.000203722
14 *378:21 0.000203122
15 *378:22 0.000265621
16 *378:23 0.000187497
17 *378:24 0.00017238
18 *378:25 6.26836e-05
19 *378:26 0.000564153
20 *378:27 0.000203122
21 *378:28 0.000125367
22 *378:29 6.26836e-05
23 *378:30 0.00034476
24 *378:31 0.000407444
25 *378:32 0.000146923
26 *378:33 0.000109696
27 *378:36 1.56709e-05
28 *378:37 0.000282076
29 *378:38 0.000253271
30 *378:41 0.000109696
31 *378:42 0.000121973
32 *378:45 6.67574e-05
33 *378:48 0.000116825
34 *378:49 0.000121973
35 *378:50 5.00681e-05
36 *378:51 0.000453042
37 *378:53 0.000400768
38 *378:54 5.00681e-05
39 *378:55 0.000243946
40 *378:56 0.000317098
41 *378:57 5.00681e-05
42 *378:58 0.000435617
43 *378:59 5.00681e-05
44 *378:60 0.000333787
45 *378:62 0.00059244
46 *378:63 6.67574e-05
47 *378:64 5.00681e-05
48 *378:65 0.000200272
49 *378:66 0.000499478
50 *378:67 0.00025034
51 *378:68 6.67574e-05
52 *378:70 0.000200272
53 *378:71 0.000200663
54 *378:72 5.00681e-05
55 *378:73 0.00025034
56 *378:75 6.67574e-05
57 *378:76 8.06367e-05
58 *378:77 4.98875e-05
59 *378:78 5.00681e-05
60 *378:80 5.00681e-05
61 *378:81 0.000193528
62 *378:82 4.98875e-05
63 *378:85 0.000274165
64 *378:87 0.000681796
65 *378:88 0.000145146
66 *378:89 9.97751e-05
67 *378:90 0.000681796
68 *378:91 6.45093e-05
69 *378:92 9.97751e-05
70 *378:93 0.000161273
71 *378:94 0.000419311
72 *378:96 0.000112891
73 *378:97 4.8382e-05
74 *378:98 0.000564457
75 *378:100 9.97751e-05
76 *378:101 4.98875e-05
77 *378:102 0.000193528
78 *378:106 9.97751e-05
79 *378:107 4.98875e-05
80 *378:108 0.000116404
81 *378:113 0.000116404
82 *378:114 0.000145146
83 *378:116 0.000290292
84 *378:117 0.000145146
85 *378:119 0.000299325
86 *378:123 0.00101438
87 *378:126 0.000715055
88 *378:127 6.45093e-05
89 *378:128 4.8382e-05
90 *378:129 6.45093e-05
91 *378:130 0.000161273
92 *378:131 0.000116404
93 *378:132 0.000112891
94 *378:133 4.98875e-05
95 *378:134 0.000116404
96 *378:138 6.65167e-05
97 *378:143 8.31459e-05
98 *378:144 0.000133033
99 *378:145 0.000145146
100 *378:146 0.000116404
101 *378:147 0.000145146
102 *378:148 4.98875e-05
103 *378:150 6.65167e-05
104 *378:151 0.000112891
105 *378:152 6.65167e-05
106 *378:153 0.000129019
107 *378:155 6.45093e-05
108 *378:156 4.8382e-05
109 *378:157 4.98875e-05
110 *378:158 0.000236878
111 *378:159 0.000221729
112 *378:161 3.47383e-05

*RES
1 *378:161 *610:S0 1.4
2 *378:159 *378:161 0.248566
3 *378:158 *615:S0 1.4
4 *378:158 *378:159 1.36714
5 *378:157 *378:158 0.372865
6 *378:156 *378:157 1.4
7 *378:155 *378:156 0.372849
8 *378:153 *378:155 0.124283
9 *378:152 *612:S0 1.4
10 *378:151 *378:153 0.869981
11 *378:150 *378:152 0.497153
12 *378:148 *378:151 1.4
13 *378:147 *378:150 1.4
14 *378:146 *614:S0 1.4
15 *378:146 *378:148 0.372865
16 *378:145 *378:147 1.11855
17 *378:144 *378:146 0.497153
18 *378:144 *378:145 1.4
19 *378:143 *378:144 0.497153
20 *378:138 *378:143 0.124288
21 *378:136 *613:S0 1.4
22 *378:136 *378:141 0.220714
23 *378:134 *617:S0 1.4
24 *378:133 *609:S0 1.4
25 *378:133 *378:138 0.372865
26 *378:133 *378:137 0.220714
27 *378:132 *378:136 1.4
28 *378:131 *616:S0 1.4
29 *378:131 *378:134 0.870018
30 *378:130 *378:133 1.4
31 *378:130 *378:132 0.869981
32 *378:129 *378:131 1.4
33 *378:128 *378:130 0.372849
34 *378:127 *378:129 0.497132
35 *378:126 *378:128 1.4
36 *378:123 *378:127 1.4
37 *378:123 *378:126 5.3444
38 *378:120 *618:S0 1.4
39 *378:120 *378:124 0.220714
40 *378:119 *378:123 2.23719
41 *378:118 *619:S0 1.4
42 *378:118 *378:121 0.03
43 *378:117 *378:120 1.4
44 *378:117 *378:119 1.4
45 *378:116 *378:118 1.4
46 *378:116 *378:117 1.11855
47 *378:114 *378:116 1.11855
48 *378:113 *621:S0 1.4
49 *378:113 *378:114 1.4
50 *378:108 *378:113 0.870018
51 *378:107 *692:AN 1.4
52 *378:106 *665:Y 1.4
53 *378:103 *620:S0 1.4
54 *378:103 *378:109 0.220714
55 *378:102 *378:108 1.4
56 *378:101 *378:107 0.372865
57 *378:100 *378:106 0.74573
58 *378:99 *622:S0 1.4
59 *378:99 *378:104 0.220714
60 *378:98 *378:103 1.4
61 *378:98 *378:102 1.4914
62 *378:97 *378:101 1.4
63 *378:96 *378:100 1.4
64 *378:94 *378:99 1.4
65 *378:94 *378:98 2.85851
66 *378:93 *378:97 0.372849
67 *378:93 *378:96 0.869981
68 *378:92 *623:S0 1.4
69 *378:91 *378:94 0.372849
70 *378:90 *378:93 1.4
71 *378:89 *378:92 0.74573
72 *378:88 *378:91 0.124283
73 *378:87 *378:90 5.09582
74 *378:85 *378:89 1.4
75 *378:85 *378:88 0.994264
76 *378:85 *378:87 1.4
77 *378:82 *624:S0 1.4
78 *378:81 *378:85 1.11855
79 *378:80 *600:S0 1.4
80 *378:78 *592:S0 1.4
81 *378:77 *378:82 0.372865
82 *378:76 *378:81 0.372849
83 *378:75 *378:80 0.372849
84 *378:73 *611:S0 1.4
85 *378:72 *378:78 0.372849
86 *378:71 *378:77 1.4
87 *378:71 *378:76 0.248566
88 *378:70 *378:75 0.124283
89 *378:68 *608:S0 1.4
90 *378:67 *378:73 1.86424
91 *378:66 *378:72 1.4
92 *378:66 *378:71 1.24286
93 *378:65 *378:70 1.36711
94 *378:64 *601:S0 1.4
95 *378:63 *378:68 0.497132
96 *378:62 *378:67 1.4
97 *378:62 *378:66 2.36149
98 *378:60 *378:65 0.124283
99 *378:59 *378:64 0.372849
100 *378:58 *378:63 1.4
101 *378:58 *378:62 1.86433
102 *378:57 *607:S0 1.4
103 *378:56 *378:60 2.36138
104 *378:55 *378:59 1.4
105 *378:55 *378:58 1.24289
106 *378:54 *378:57 0.372849
107 *378:53 *378:56 1.4
108 *378:53 *378:55 0.497155
109 *378:51 *378:54 1.4
110 *378:51 *378:53 2.36149
111 *378:50 *599:S0 1.4
112 *378:49 *378:51 0.870021
113 *378:48 *378:50 0.372849
114 *378:48 *378:49 1.4
115 *378:45 *378:48 0.497132
116 *378:43 *593:S0 1.4
117 *378:43 *378:46 0.220714
118 *378:42 *378:45 1.4
119 *378:41 *594:S0 1.4
120 *378:38 *378:43 1.4
121 *378:38 *378:42 0.870021
122 *378:37 *378:41 0.869979
123 *378:36 *595:S0 1.4
124 *378:33 *602:S0 1.4
125 *378:32 *378:38 0.99431
126 *378:31 *378:37 1.36711
127 *378:31 *378:36 0.124283
128 *378:30 *604:S0 1.4
129 *378:29 *603:S0 1.4
130 *378:28 *378:33 0.869979
131 *378:27 *378:32 0.124289
132 *378:26 *378:31 1.73996
133 *378:26 *378:30 2.73422
134 *378:25 *378:29 0.497131
135 *378:24 *378:28 0.124283
136 *378:23 *378:27 1.49147
137 *378:22 *378:26 1.4
138 *378:21 *378:25 1.4
139 *378:19 *378:24 1.24283
140 *378:19 *378:23 1.4
141 *378:18 *378:22 2.11291
142 *378:18 *378:21 1.61575
143 *378:17 *606:S0 1.4
144 *378:16 *378:19 0.372848
145 *378:14 *378:18 1.4
146 *378:13 *378:17 0.248565
147 *378:13 *378:16 0.372848
148 *378:12 *590:S0 1.4
149 *378:12 *378:14 4.97131
150 *378:9 *378:13 0.621413
151 *378:8 *378:12 0.869979
152 *378:7 *598:S0 1.4
153 *378:7 *378:10 0.220714
154 *378:6 *378:9 1.4
155 *378:5 *378:8 1.4
156 *378:4 *378:7 1.4
157 *378:4 *378:6 2.11291
158 *378:2 *378:5 0.497155
159 *378:2 *378:4 2.36149
160 *378:1 *605:S0 1.4
161 *378:1 *378:2 1.4
162 *378:0 *378:1 0.03
*END

*D_NET *379 0.000276555

*CONN
*I *657:Y O *C 44.225 47.705 *L 0 *D NAND2XL
*I *564:B0 I *C 45.965 47.995 *L 0.0028 *D OAI21X1

*CAP
1 *379:1 1.72576e-05
2 *379:2 1.72576e-05
3 *379:3 8.65046e-05
4 *379:5 8.65046e-05
5 *379:6 3.45151e-05
6 *379:7 3.45151e-05

*RES
1 *379:7 *564:B0 1.4
2 *379:6 *379:7 0.248567
3 *379:5 *379:6 1.4
4 *379:3 *379:5 0.621415
5 *379:2 *657:Y 1.4
6 *379:1 *379:3 1.4
7 *379:1 *379:2 0.124283
8 *379:0 *379:1 0.212143
*END

*D_NET *380 0.00136668

*CONN
*I *575:B0 I *C 19.865 42.775 *L 0.0028 *D OAI21X1
*I *656:Y O *C 19.575 52.925 *L 0 *D NAND2XL

*CAP
1 *380:1 0.000404602
2 *380:2 0.000438319
3 *380:3 0.000134867
4 *380:4 0.000118009
5 *380:5 9.69943e-05
6 *380:6 8.01358e-05
7 *380:7 4.68743e-05
8 *656:Y 4.68743e-05

*RES
1 *380:7 *656:Y 0.372866
2 *380:6 *380:7 1.4
3 *380:5 *380:6 0.621423
4 *380:4 *380:5 0.124289
5 *380:3 *380:4 0.745732
6 *380:2 *380:3 0.248578
7 *380:1 *380:2 2.98293
8 *575:B0 *380:1 1.4
*END

*D_NET *381 0.000428814

*CONN
*I *655:Y O *C 21.315 42.485 *L 0 *D NAND2XL
*I *572:B0 I *C 23.055 45.965 *L 0.0028 *D OAI21X1

*CAP
1 *655:Y 7.95393e-05
2 *381:1 7.95393e-05
3 *381:2 0.000134867
4 *381:3 0.000134867

*RES
1 *381:3 *572:B0 1.4
2 *381:2 *381:3 0.99431
3 *381:1 *381:2 1.4
4 *655:Y *381:1 0.621444
*END

*D_NET *382 0.000556077

*CONN
*I *654:Y O *C 15.225 41.035 *L 0 *D NAND2XL
*I *573:B0 I *C 18.125 42.775 *L 0.0028 *D OAI21X1

*CAP
1 *654:Y 0.000143171
2 *382:1 0.000143171
3 *382:2 0.000134867
4 *382:3 0.000134867

*RES
1 *382:3 *573:B0 1.4
2 *382:2 *382:3 0.99431
3 *382:1 *382:2 1.4
4 *654:Y *382:1 1.1186
*END

*D_NET *383 0.000345151

*CONN
*I *567:B0 I *C 39.875 47.995 *L 0.0028 *D OAI21X1
*I *653:Y O *C 40.745 46.255 *L 0 *D NAND2XL

*CAP
1 *383:1 5.17727e-05
2 *383:2 0.000172576
3 *383:3 0.000120803

*RES
1 *383:3 *653:Y 1.4
2 *383:2 *383:3 0.869984
3 *383:1 *383:2 0.37285
4 *567:B0 *383:1 1.4
*END

*D_NET *384 0.000382121

*CONN
*I *558:B0 I *C 54.375 42.775 *L 0.0028 *D OAI21X1
*I *652:Y O *C 54.375 41.035 *L 0 *D NAND2XL

*CAP
1 *384:1 3.47383e-05
2 *384:2 0.000121584
3 *384:3 0.000104215
4 *384:4 6.94766e-05
5 *384:5 5.21074e-05

*RES
1 *384:5 *652:Y 1.4
2 *384:4 *384:5 0.372849
3 *384:3 *384:4 0.124283
4 *384:2 *384:3 0.621415
5 *384:1 *384:2 0.248566
6 *558:B0 *384:1 1.4
*END

*D_NET *385 0.00175493

*CONN
*I *651:Y O *C 13.485 41.035 *L 0 *D NAND2XL
*I *576:B0 I *C 13.775 56.405 *L 0.0028 *D OAI21X1

*CAP
1 *385:1 0.000623762
2 *385:2 0.00064062
3 *385:3 0.000253703
4 *385:4 0.000236845

*RES
1 *385:4 *576:B0 1.4
2 *385:3 *385:4 1.86425
3 *385:2 *385:3 0.124289
4 *385:1 *385:2 4.59868
5 *651:Y *385:1 1.4
*END

*D_NET *386 0.000333787

*CONN
*I *565:A I *C 44.515 61.625 *L 0.00666 *D ADDFX1
*I *649:Y O *C 50.025 63.365 *L 0 *D MXI2XL

*CAP
1 *386:1 5.00681e-05
2 *386:2 8.34468e-05
3 *386:3 0.000116825
4 *386:4 8.34468e-05

*RES
1 *386:4 *649:Y 1.4
2 *386:3 *386:4 0.621415
3 *386:2 *386:3 0.248566
4 *386:1 *386:2 0.372849
5 *565:A *386:1 1.4
*END

*D_NET *387 0.000615523

*CONN
*I *568:A I *C 36.975 61.625 *L 0.00666 *D ADDFX1
*I *648:Y O *C 44.805 63.365 *L 0 *D MXI2XL

*CAP
1 *387:1 3.33787e-05
2 *387:2 3.33787e-05
3 *387:3 0.000174247
4 *387:4 0.000174247
5 *387:5 0.000100136
6 *387:6 0.000100136

*RES
1 *387:6 *648:Y 1.4
2 *387:5 *387:6 0.745698
3 *387:4 *387:5 1.4
4 *387:3 *387:4 1.24289
5 *387:2 *387:3 1.4
6 *387:1 *387:2 0.248566
7 *568:A *387:1 1.4
*END

*D_NET *388 0.000964017

*CONN
*I *571:A I *C 29.435 61.625 *L 0.00666 *D ADDFX1
*I *647:Y O *C 40.165 63.365 *L 0 *D MXI2XL

*CAP
1 *388:1 6.67574e-05
2 *388:2 6.67574e-05
3 *388:3 0.000348494
4 *388:4 0.000348494
5 *388:5 6.67574e-05
6 *388:6 6.67574e-05

*RES
1 *388:6 *647:Y 1.4
2 *388:5 *388:6 0.497132
3 *388:4 *388:5 1.4
4 *388:3 *388:4 2.48577
5 *388:2 *388:3 1.4
6 *388:1 *388:2 0.497132
7 *571:A *388:1 1.4
*END

*D_NET *389 0.00155569

*CONN
*I *574:A I *C 19.285 61.625 *L 0.00666 *D ADDFX1
*I *646:Y O *C 34.655 63.365 *L 0 *D MXI2XL

*CAP
1 *389:1 9.40254e-05
2 *389:2 9.40254e-05
3 *389:3 0.000301945
4 *389:4 0.00031937
5 *389:5 0.000191672
6 *389:6 0.000191672
7 *389:7 0.000156822
8 *389:8 0.000139398
9 *389:9 3.33787e-05
10 *389:10 3.33787e-05

*RES
1 *389:10 *646:Y 1.4
2 *389:9 *389:10 0.248566
3 *389:8 *389:9 1.4
4 *389:7 *389:8 0.99431
5 *389:6 *389:7 0.124289
6 *389:5 *389:6 1.24289
7 *389:4 *389:5 0.124289
8 *389:3 *389:4 2.2372
9 *389:2 *389:3 1.4
10 *389:1 *389:2 0.745696
11 *574:A *389:1 1.4
*END

*D_NET *390 0.00154727

*CONN
*I *577:A I *C 16.675 58.435 *L 0.00666 *D ADDFX1
*I *645:Y O *C 34.075 58.145 *L 0 *D MXI2XL

*CAP
1 *390:2 0.000372869
2 *390:4 0.000390294
3 *390:5 0.000191672
4 *390:6 0.000209096
5 *390:7 0.000209096
6 *390:8 0.000174247

*RES
1 *390:9 *390:11 0.220714
2 *390:9 *645:Y 1.4
3 *390:8 *390:9 1.4
4 *390:7 *390:8 1.24289
5 *390:6 *390:7 0.248578
6 *390:5 *390:6 1.24289
7 *390:4 *390:5 0.124289
8 *390:2 *390:4 2.85864
9 *390:1 *577:A 1.4
10 *390:1 *390:2 1.4
11 *390:0 *390:1 0.220714
*END

*D_NET *391 0.000439806

*CONN
*I *562:B I *C 49.735 59.015 *L 0.00615 *D ADDFXL
*I *643:Y O *C 50.895 61.915 *L 0 *D MXI2XL

*CAP
1 *391:1 8.34468e-05
2 *391:2 8.34468e-05
3 *391:3 6.96988e-05
4 *391:4 6.96988e-05
5 *391:5 6.67574e-05
6 *391:6 6.67574e-05

*RES
1 *391:6 *643:Y 1.4
2 *391:5 *391:6 0.497132
3 *391:4 *391:5 1.4
4 *391:3 *391:4 0.497155
5 *391:2 *391:3 1.4
6 *391:1 *391:2 0.621415
7 *562:B *391:1 1.4
*END

*D_NET *392 0.000472036

*CONN
*I *642:Y O *C 7.975 35.235 *L 0 *D MX2X1
*I *541:D I *C 9.715 37.555 *L 0.00276 *D SDFFRHQX1

*CAP
1 *392:1 6.74337e-05
2 *392:2 0.000168584
3 *392:3 0.000168584
4 *392:4 6.74337e-05

*RES
1 *392:4 *541:D 1.4
2 *392:3 *392:4 0.497155
3 *392:2 *392:3 0.745732
4 *392:1 *392:2 0.497155
5 *642:Y *392:1 1.4
*END

*D_NET *393 0.000609

*CONN
*I *545:D I *C 9.715 6.235 *L 0.00276 *D SDFFRHQX1
*I *641:Y O *C 14.645 6.525 *L 0 *D MX2X1

*CAP
1 *393:2 4.56028e-05
2 *393:4 6.08038e-05
3 *393:5 0.000182411
4 *393:6 0.000182411
5 *393:7 6.08038e-05
6 *393:8 4.56028e-05
7 *393:9 1.56818e-05
8 *393:10 1.56818e-05

*RES
1 *393:10 *641:Y 1.4
2 *393:9 *393:11 0.0878571
3 *393:9 *393:10 0.124289
4 *393:8 *393:9 1.4
5 *393:7 *393:8 0.372866
6 *393:6 *393:7 0.124289
7 *393:5 *393:6 1.36718
8 *393:4 *393:5 0.124289
9 *393:2 *393:4 0.372866
10 *393:1 *545:D 1.4
11 *393:1 *393:2 1.4
12 *393:0 *393:1 0.220714
*END

*D_NET *394 0.00062351

*CONN
*I *640:Y O *C 7.105 43.065 *L 0 *D MX2X1
*I *540:D I *C 9.715 45.965 *L 0.00276 *D SDFFRHQX1

*CAP
1 *394:1 0.000118009
2 *394:2 0.000118009
3 *394:3 0.000143171
4 *394:4 0.000143171
5 *394:5 5.05753e-05
6 *394:6 5.05753e-05

*RES
1 *394:6 *540:D 1.4
2 *394:5 *394:6 0.372866
3 *394:4 *394:5 1.4
4 *394:3 *394:4 1.1186
5 *394:2 *394:3 1.4
6 *394:1 *394:2 0.870021
7 *640:Y *394:1 1.4
*END

*D_NET *395 0.00106675

*CONN
*I *639:Y O *C 70.615 37.845 *L 0 *D MX2X1
*I *557:D I *C 77.865 37.555 *L 0.00276 *D SDFFRHQX1

*CAP
1 *395:3 4.97034e-05
2 *395:4 6.62712e-05
3 *395:5 0.000248517
4 *395:6 0.000248517
5 *395:7 0.000132542
6 *395:8 0.000115975
7 *395:9 5.21074e-05
8 *395:10 6.94766e-05
9 *395:11 1.73691e-05
10 *395:12 3.31356e-05
11 *557:D 3.31356e-05

*RES
1 *395:12 *557:D 0.248566
2 *395:11 *395:12 1.4
3 *395:10 *395:11 0.124283
4 *395:9 *395:10 0.372849
5 *395:8 *395:9 1.4
6 *395:7 *395:8 0.869981
7 *395:6 *395:7 0.124283
8 *395:5 *395:6 1.73996
9 *395:4 *395:5 0.124283
10 *395:3 *395:4 0.372849
11 *395:1 *395:3 1.4
12 *395:1 *639:Y 1.4
13 *395:0 *395:1 0.220714
*END

*D_NET *396 0.000617404

*CONN
*I *555:D I *C 77.865 19.865 *L 0.00276 *D SDFFRHQX1
*I *638:Y O *C 79.025 24.795 *L 0 *D MX2X1

*CAP
1 *396:1 0.000179613
2 *396:2 0.00023487
3 *396:3 0.000129089
4 *396:4 7.38324e-05

*RES
1 *396:4 *638:Y 1.4
2 *396:3 *396:4 0.745732
3 *396:2 *396:3 0.497155
4 *396:1 *396:2 1.36718
5 *555:D *396:1 1.4
*END

*D_NET *397 0.000686154

*CONN
*I *547:D I *C 23.925 4.205 *L 0.00276 *D SDFFRHQX1
*I *637:Y O *C 25.375 9.135 *L 0 *D MX2X1

*CAP
1 *397:1 3.13637e-05
2 *397:2 3.13637e-05
3 *397:3 6.08038e-05
4 *397:4 6.08038e-05
5 *397:5 0.000188182
6 *397:6 0.000203864
7 *397:7 6.27273e-05
8 *397:8 4.70455e-05

*RES
1 *397:8 *637:Y 1.4
2 *397:7 *397:8 0.372866
3 *397:6 *397:7 0.124289
4 *397:5 *397:6 1.49147
5 *397:4 *397:5 1.4
6 *397:3 *397:4 0.497155
7 *397:2 *397:3 1.4
8 *397:1 *397:2 0.248578
9 *547:D *397:1 1.4
*END

*D_NET *398 0.00228491

*CONN
*I *589:A1 I *C 30.305 58.145 *L 0.0028 *D AOI22X1
*I *588:A1 I *C 32.625 58.435 *L 0.00278 *D AOI21X1
*I *591:B I *C 32.335 56.115 *L 0.00171 *D NOR2XL
*I *650:Y O *C 40.745 56.695 *L 0 *D MXI2XL

*CAP
1 *398:1 5.00681e-05
2 *398:2 0.000133515
3 *398:3 0.000233651
4 *398:4 8.34468e-05
5 *398:5 0.000216962
6 *398:6 3.33787e-05
7 *398:7 0.000226521
8 *398:8 0.000150204
9 *398:10 0.000243946
10 *398:11 6.67574e-05
11 *398:12 0.000226521
12 *398:13 3.33787e-05
13 *398:14 0.000226521
14 *398:16 0.000121973
15 *398:17 0.000104548
16 *398:18 6.67574e-05
17 *398:19 6.67574e-05

*RES
1 *398:19 *650:Y 1.4
2 *398:18 *398:19 0.497132
3 *398:17 *398:18 1.4
4 *398:16 *398:17 0.745732
5 *398:14 *398:16 0.124289
6 *398:13 *591:B 1.4
7 *398:12 *398:14 1.49146
8 *398:11 *398:13 0.248566
9 *398:10 *398:12 0.124289
10 *398:8 *398:11 0.248566
11 *398:7 *398:10 1.61575
12 *398:6 *588:A1 1.4
13 *398:5 *398:8 0.869981
14 *398:5 *398:7 1.4
15 *398:4 *398:6 0.248566
16 *398:3 *398:5 0.745698
17 *398:3 *398:4 0.372849
18 *398:2 *398:3 0.621415
19 *398:1 *398:2 0.372849
20 *589:A1 *398:1 1.4
*END

*D_NET *399 0.00295403

*CONN
*I *597:B I *C 16.965 56.115 *L 0.00167 *D NAND2XL
*I *596:B I *C 16.965 61.335 *L 0.00171 *D NOR2XL
*I *644:Y O *C 36.395 58.145 *L 0 *D MXI2XL

*CAP
1 *399:1 4.70127e-05
2 *399:2 0.000156709
3 *399:3 0.000156709
4 *399:4 0.000125367
5 *399:5 0.00093651
6 *399:6 7.83545e-05
7 *399:7 0.000953935
8 *399:9 0.000191672
9 *399:10 0.000174247
10 *399:11 6.67574e-05
11 *399:12 6.67574e-05

*RES
1 *399:12 *644:Y 1.4
2 *399:11 *399:12 0.497132
3 *399:10 *399:11 1.4
4 *399:9 *399:10 1.24289
5 *399:7 *399:9 0.124289
6 *399:6 *596:B 1.4
7 *399:5 *399:7 7.08446
8 *399:4 *399:6 0.621413
9 *399:4 *399:5 1.4
10 *399:3 *399:4 0.372848
11 *399:2 *399:3 0.869979
12 *399:1 *399:2 0.372848
13 *597:B *399:1 1.4
*END

*D_NET *400 0.000293913

*CONN
*I *636:Y O *C 77.575 16.965 *L 0 *D MX2X1
*I *554:D I *C 77.865 14.645 *L 0.00276 *D SDFFRHQX1

*CAP
1 *400:0 6.53139e-05
2 *400:1 4.89854e-05
3 *400:2 9.79709e-05
4 *400:4 8.16424e-05

*RES
1 *400:4 *554:D 1.4
2 *400:2 *400:4 0.621444
3 *400:1 *636:Y 1.4
4 *400:0 *400:2 0.124289
5 *400:0 *400:1 0.372866
*END

*D_NET *401 0.000356971

*CONN
*I *635:Y O *C 76.995 11.745 *L 0 *D MX2X1
*I *553:D I *C 77.865 9.425 *L 0.00276 *D SDFFRHQX1

*CAP
1 *635:Y 4.81398e-05
2 *401:1 6.41864e-05
3 *401:2 1.60466e-05
4 *401:3 0.000114299
5 *401:4 0.000114299

*RES
1 *401:4 *553:D 1.4
2 *401:3 *401:4 0.870021
3 *401:2 *401:3 1.4
4 *401:1 *401:2 0.124283
5 *635:Y *401:1 0.372849
*END

*D_NET *402 0.00055589

*CONN
*I *546:D I *C 14.355 4.205 *L 0.00276 *D SDFFRHQX1
*I *634:Y O *C 17.255 6.525 *L 0 *D MX2X1

*CAP
1 *402:2 0.000136809
2 *402:4 0.000136809
3 *402:5 3.13637e-05
4 *402:6 4.70455e-05
5 *402:7 0.000109773
6 *402:8 9.4091e-05

*RES
1 *402:8 *634:Y 1.4
2 *402:7 *402:8 0.745733
3 *402:6 *402:7 0.124289
4 *402:5 *402:6 0.248578
5 *402:4 *402:5 1.4
6 *402:2 *402:4 1.1186
7 *402:1 *546:D 1.4
8 *402:1 *402:2 1.4
9 *402:0 *402:1 0.220714
*END

*D_NET *403 0.000992018

*CONN
*I *548:D I *C 34.365 4.205 *L 0.00276 *D SDFFRHQX1
*I *633:Y O *C 39.295 3.915 *L 0 *D MX2X1

*CAP
1 *403:0 0.000294509
2 *403:1 0.000294509
3 *403:2 0.0001085
4 *403:3 9.29999e-05
5 *403:4 0.0001085
6 *403:5 9.29999e-05

*RES
1 *403:5 *633:Y 1.4
2 *403:4 *548:D 1.4
3 *403:3 *403:5 0.7457
4 *403:2 *403:4 0.869984
5 *403:1 *403:3 1.4
6 *403:0 *403:2 1.4
7 *403:0 *403:1 2.11281
*END

*D_NET *404 0.000646134

*CONN
*I *632:Y O *C 5.945 11.745 *L 0 *D MX2X1
*I *544:D I *C 9.715 9.425 *L 0.00276 *D SDFFRHQX1

*CAP
1 *404:0 7.84092e-05
2 *404:1 7.84092e-05
3 *404:2 0.000197612
4 *404:4 0.000197612
5 *404:5 4.70455e-05
6 *404:6 4.70455e-05

*RES
1 *404:6 *544:D 1.4
2 *404:5 *404:6 0.372866
3 *404:4 *404:5 1.4
4 *404:2 *404:4 1.61575
5 *404:1 *632:Y 1.4
6 *404:0 *404:2 1.4
7 *404:0 *404:1 0.621444
*END

*D_NET *405 0.000432359

*CONN
*I *631:Y O *C 7.975 16.965 *L 0 *D MX2X1
*I *543:D I *C 9.715 14.645 *L 0.00276 *D SDFFRHQX1

*CAP
1 *631:Y 9.12057e-05
2 *405:1 0.000106407
3 *405:2 1.52009e-05
4 *405:3 0.000109773
5 *405:4 0.000109773

*RES
1 *405:4 *543:D 1.4
2 *405:3 *405:4 0.870021
3 *405:2 *405:3 1.4
4 *405:1 *405:2 0.124289
5 *631:Y *405:1 0.745732
*END

*D_NET *406 0.000876561

*CONN
*I *630:Y O *C 7.975 24.795 *L 0 *D MX2X1
*I *542:D I *C 9.715 30.305 *L 0.00276 *D SDFFRHQX1

*CAP
1 *630:Y 9.12057e-05
2 *406:1 0.000106407
3 *406:2 1.52009e-05
4 *406:3 4.70455e-05
5 *406:4 6.27273e-05
6 *406:5 0.000217395
7 *406:6 0.000218571
8 *406:7 6.74337e-05
9 *406:8 5.05753e-05

*RES
1 *406:8 *542:D 1.4
2 *406:7 *406:8 0.372866
3 *406:6 *406:7 0.124289
4 *406:5 *406:6 1.49146
5 *406:4 *406:5 0.124289
6 *406:3 *406:4 0.372866
7 *406:2 *406:3 1.4
8 *406:1 *406:2 0.124289
9 *630:Y *406:1 0.745732
*END

*D_NET *407 0.000359227

*CONN
*I *552:D I *C 76.705 6.235 *L 0.00276 *D SDFFRHQX1
*I *629:Y O *C 77.575 3.915 *L 0 *D MX2X1

*CAP
1 *407:0 0.000114299
2 *407:1 0.000114299
3 *407:2 6.53139e-05
4 *407:3 6.53139e-05

*RES
1 *407:3 *629:Y 1.4
2 *407:2 *552:D 1.4
3 *407:1 *407:3 0.497155
4 *407:0 *407:2 0.497155
5 *407:0 *407:1 0.372866
*END

*D_NET *408 0.000779821

*CONN
*I *628:Y O *C 70.615 9.135 *L 0 *D MX2X1
*I *551:D I *C 72.645 4.205 *L 0.00276 *D SDFFRHQX1

*CAP
1 *408:3 0.000112326
2 *408:4 0.000112326
3 *408:5 0.000277584
4 *408:6 0.000277584

*RES
1 *408:6 *551:D 1.4
2 *408:5 *408:6 2.11291
3 *408:4 *408:5 1.4
4 *408:3 *408:4 0.869981
5 *408:1 *408:3 1.4
6 *408:1 *628:Y 1.4
7 *408:0 *408:1 0.220714
*END

*D_NET *409 0.000684669

*CONN
*I *627:Y O *C 59.595 9.135 *L 0 *D MX2X1
*I *550:D I *C 60.755 4.205 *L 0.00276 *D SDFFRHQX1

*CAP
1 *627:Y 3.20932e-05
2 *409:1 3.20932e-05
3 *409:2 0.000146956
4 *409:3 0.000179613
5 *409:4 0.000163285
6 *409:5 0.000130628

*RES
1 *409:5 *550:D 1.4
2 *409:4 *409:5 0.99431
3 *409:3 *409:4 0.248577
4 *409:2 *409:3 1.1186
5 *409:1 *409:2 1.4
6 *627:Y *409:1 0.248566
*END

*D_NET *410 0.0012692

*CONN
*I *626:Y O *C 42.195 3.915 *L 0 *D MX2X1
*I *549:D I *C 49.445 4.205 *L 0.00276 *D SDFFRHQX1

*CAP
1 *410:0 0.000433101
2 *410:1 9.29999e-05
3 *410:2 0.000433101
4 *410:3 9.29999e-05
5 *410:4 0.0001085
6 *410:6 0.0001085

*RES
1 *410:6 *549:D 1.4
2 *410:4 *410:6 0.869984
3 *410:3 *626:Y 1.4
4 *410:2 *410:4 1.4
5 *410:1 *410:3 0.7457
6 *410:0 *410:2 3.10707
7 *410:0 *410:1 1.4
*END

*D_NET *411 0.000459357

*CONN
*I *625:Y O *C 79.025 32.625 *L 0 *D MX2X1
*I *556:D I *C 77.865 35.525 *L 0.00276 *D SDFFRHQX1

*CAP
1 *411:1 1.52224e-05
2 *411:3 1.52224e-05
3 *411:4 5.81338e-05
4 *411:5 5.81338e-05
5 *411:6 0.000156322
6 *411:7 0.000156322

*RES
1 *411:7 *556:D 1.4
2 *411:6 *411:7 1.11855
3 *411:5 *411:6 1.4
4 *411:4 *411:5 0.497134
5 *411:3 *411:4 1.4
6 *411:1 *411:3 0.124283
7 *411:1 *625:Y 1.4
8 *411:0 *411:1 0.0878571
*END

*D_NET *412 0.000493857

*CONN
*I *518:D I *C 56.985 74.095 *L 0.00276 *D SDFFRHQX1
*I *624:Y O *C 55.535 76.995 *L 0 *D MX2X1

*CAP
1 *412:2 8.06367e-05
2 *412:4 8.06367e-05
3 *412:5 0.000166292
4 *412:6 0.000166292

*RES
1 *412:6 *624:Y 1.4
2 *412:5 *412:6 1.24288
3 *412:4 *412:5 1.4
4 *412:2 *412:4 0.621415
5 *412:1 *518:D 1.4
6 *412:1 *412:2 1.4
7 *412:0 *412:1 0.220714
*END

*D_NET *413 0.00125278

*CONN
*I *623:Y O *C 58.145 76.995 *L 0 *D MX2X1
*I *493:D I *C 61.045 68.875 *L 0.00276 *D SDFFRHQX1

*CAP
1 *623:Y 0.000145146
2 *413:1 0.000177401
3 *413:2 3.22547e-05
4 *413:3 0.000149663
5 *413:4 0.000166292
6 *413:5 0.000299325
7 *413:6 0.000282696

*RES
1 *413:6 *493:D 1.4
2 *413:5 *413:6 2.1129
3 *413:4 *413:5 0.124288
4 *413:3 *413:4 1.11859
5 *413:2 *413:3 1.4
6 *413:1 *413:2 0.248566
7 *623:Y *413:1 1.11855
*END

*D_NET *414 0.000490846

*CONN
*I *622:Y O *C 61.915 74.385 *L 0 *D MX2X1
*I *517:D I *C 63.945 72.065 *L 0.00276 *D SDFFRHQX1

*CAP
1 *622:Y 0.000112891
2 *414:1 0.000129019
3 *414:2 1.61273e-05
4 *414:3 0.000116404
5 *414:4 0.000116404

*RES
1 *414:4 *517:D 1.4
2 *414:3 *414:4 0.870018
3 *414:2 *414:3 1.4
4 *414:1 *414:2 0.124283
5 *622:Y *414:1 0.869981
*END

*D_NET *415 0.000731684

*CONN
*I *621:Y O *C 72.065 76.995 *L 0 *D MX2X1
*I *516:D I *C 73.515 72.065 *L 0.00276 *D SDFFRHQX1

*CAP
1 *415:0 0.000116404
2 *415:1 4.98875e-05
3 *415:2 0.000249438
4 *415:4 0.00019955
5 *415:5 6.65167e-05
6 *415:6 4.98875e-05

*RES
1 *415:6 *516:D 1.4
2 *415:5 *415:6 0.372865
3 *415:4 *415:5 0.124288
4 *415:2 *415:4 1.36717
5 *415:1 *621:Y 1.4
6 *415:0 *415:2 0.497153
7 *415:0 *415:1 0.372865
*END

*D_NET *416 0.00118024

*CONN
*I *620:Y O *C 68.585 74.385 *L 0 *D MX2X1
*I *492:D I *C 73.515 68.875 *L 0.00276 *D SDFFRHQX1

*CAP
1 *416:0 0.00019955
2 *416:1 0.00019955
3 *416:2 0.000274165
4 *416:4 0.000274165
5 *416:5 0.000116404
6 *416:6 0.000116404

*RES
1 *416:6 *492:D 1.4
2 *416:5 *416:6 0.870018
3 *416:4 *416:5 1.4
4 *416:2 *416:4 2.11281
5 *416:1 *620:Y 1.4
6 *416:0 *416:2 1.4
7 *416:0 *416:1 1.49146
*END

*D_NET *417 0.000461602

*CONN
*I *619:Y O *C 74.675 76.995 *L 0 *D MX2X1
*I *515:D I *C 75.835 74.095 *L 0.00276 *D SDFFRHQX1

*CAP
1 *417:0 4.98875e-05
2 *417:1 4.98875e-05
3 *417:2 6.45093e-05
4 *417:4 6.45093e-05
5 *417:5 0.000116404
6 *417:6 0.000116404

*RES
1 *417:6 *515:D 1.4
2 *417:5 *417:6 0.870018
3 *417:4 *417:5 1.4
4 *417:2 *417:4 0.497132
5 *417:1 *619:Y 1.4
6 *417:0 *417:2 1.4
7 *417:0 *417:1 0.372865
*END

*D_NET *418 0.00133033

*CONN
*I *491:D I *C 75.835 66.845 *L 0.00276 *D SDFFRHQX1
*I *618:Y O *C 77.285 76.995 *L 0 *D MX2X1

*CAP
1 *418:1 0.000382471
2 *418:2 0.000415729
3 *418:3 0.00019955
4 *418:4 0.000216179
5 *418:5 8.31459e-05
6 *418:6 3.32584e-05

*RES
1 *418:6 *618:Y 1.4
2 *418:5 *418:6 0.248577
3 *418:4 *418:5 0.372865
4 *418:3 *418:4 1.24288
5 *418:2 *418:3 0.248577
6 *418:1 *418:2 2.85863
7 *491:D *418:1 1.4
*END

*D_NET *419 0.00080245

*CONN
*I *514:D I *C 76.125 63.655 *L 0.00276 *D SDFFRHQX1
*I *617:Y O *C 78.445 69.165 *L 0 *D MX2X1

*CAP
1 *419:1 4.98875e-05
2 *419:2 4.98875e-05
3 *419:3 0.000112891
4 *419:4 0.000112891
5 *419:5 1.52883e-05
6 *419:6 0.000238446
7 *419:7 0.000223158

*RES
1 *419:7 *617:Y 1.4
2 *419:6 *419:7 1.98861
3 *419:5 *419:6 0.124288
4 *419:4 *419:5 1.4
5 *419:3 *419:4 0.869981
6 *419:2 *419:3 1.4
7 *419:1 *419:2 0.372865
8 *514:D *419:1 1.4
*END

*D_NET *420 0.00150213

*CONN
*I *490:D I *C 76.125 61.625 *L 0.00276 *D SDFFRHQX1
*I *616:Y O *C 78.445 71.775 *L 0 *D MX2X1

*CAP
1 *420:2 0.000167351
2 *420:4 0.000167351
3 *420:5 0.000223158
4 *420:6 0.000251053
5 *420:7 0.000223158
6 *420:8 0.000223158
7 *420:9 9.76316e-05
8 *420:10 6.97369e-05
9 *420:11 3.97677e-05
10 *616:Y 3.97677e-05

*RES
1 *420:11 *616:Y 0.372848
2 *420:10 *420:11 1.4
3 *420:9 *420:10 0.62144
4 *420:8 *420:9 0.248576
5 *420:7 *420:8 1.74003
6 *420:6 *420:7 0.248576
7 *420:5 *420:6 1.98861
8 *420:4 *420:5 1.4
9 *420:2 *420:4 1.36711
10 *420:1 *490:D 1.4
11 *420:1 *420:2 1.4
12 *420:0 *420:1 0.220714
*END

*D_NET *421 0.000702361

*CONN
*I *513:D I *C 75.255 51.185 *L 0.00276 *D SDFFRHQX1
*I *615:Y O *C 79.605 53.505 *L 0 *D MX2X1

*CAP
1 *421:2 0.000207244
2 *421:4 0.000207244
3 *421:5 7.41996e-05
4 *421:6 0.000102094
5 *421:7 6.97369e-05
6 *421:8 4.18421e-05

*RES
1 *421:8 *615:Y 1.4
2 *421:7 *421:8 0.372864
3 *421:6 *421:7 0.248576
4 *421:5 *421:6 0.621423
5 *421:4 *421:5 1.4
6 *421:2 *421:4 1.61568
7 *421:1 *513:D 1.4
8 *421:1 *421:2 1.4
9 *421:0 *421:1 0.220714
*END

*D_NET *422 0.000558366

*CONN
*I *512:D I *C 74.675 53.215 *L 0.00276 *D SDFFRHQX1
*I *614:Y O *C 76.705 56.115 *L 0 *D MX2X1

*CAP
1 *422:1 4.98875e-05
2 *422:2 4.98875e-05
3 *422:3 0.000112891
4 *422:4 0.000112891
5 *422:5 0.000116404
6 *422:6 0.000116404

*RES
1 *422:6 *614:Y 1.4
2 *422:5 *422:6 0.870018
3 *422:4 *422:5 1.4
4 *422:3 *422:4 0.869981
5 *422:2 *422:3 1.4
6 *422:1 *422:2 0.372865
7 *512:D *422:1 1.4
*END

*D_NET *423 0.000498875

*CONN
*I *511:D I *C 71.775 56.405 *L 0.00276 *D SDFFRHQX1
*I *613:Y O *C 73.805 58.725 *L 0 *D MX2X1

*CAP
1 *423:1 3.32584e-05
2 *423:2 0.000149663
3 *423:3 0.000216179
4 *423:4 9.97751e-05

*RES
1 *423:4 *613:Y 1.4
2 *423:3 *423:4 0.74573
3 *423:2 *423:3 0.870018
4 *423:1 *423:2 0.248577
5 *511:D *423:1 1.4
*END

*D_NET *424 0.00178717

*CONN
*I *488:D I *C 75.545 45.965 *L 0.00276 *D SDFFRHQX1
*I *612:Y O *C 79.315 56.115 *L 0 *D MX2X1

*CAP
1 *424:1 8.68457e-05
2 *424:2 8.68457e-05
3 *424:3 0.000270553
4 *424:4 0.000270553
5 *424:5 9.13346e-05
6 *424:6 0.000106557
7 *424:7 0.000137002
8 *424:8 0.000137002
9 *424:9 0.000241568
10 *424:10 0.000226346
11 *424:11 6.62794e-05
12 *612:Y 6.62794e-05

*RES
1 *424:11 *612:Y 0.621413
2 *424:10 *424:11 1.4
3 *424:9 *424:10 1.9886
4 *424:8 *424:9 0.124283
5 *424:7 *424:8 0.994265
6 *424:6 *424:7 0.124283
7 *424:5 *424:6 0.745699
8 *424:4 *424:5 1.4
9 *424:3 *424:4 2.2371
10 *424:2 *424:3 1.4
11 *424:1 *424:2 0.621415
12 *488:D *424:1 1.4
*END

*D_NET *425 0.00105974

*CONN
*I *611:Y O *C 47.125 71.775 *L 0 *D MX2X1
*I *510:D I *C 51.475 68.875 *L 0.00276 *D SDFFRHQX1

*CAP
1 *425:1 3.33787e-05
2 *425:2 3.33787e-05
3 *425:3 5.22741e-05
4 *425:4 6.96988e-05
5 *425:5 0.000174247
6 *425:6 0.000174247
7 *425:7 6.96988e-05
8 *425:8 5.22741e-05
9 *425:9 0.000200272
10 *425:10 0.000200272

*RES
1 *425:10 *510:D 1.4
2 *425:9 *425:10 1.4914
3 *425:8 *425:9 1.4
4 *425:7 *425:8 0.372866
5 *425:6 *425:7 0.124289
6 *425:5 *425:6 1.1186
7 *425:4 *425:5 0.124289
8 *425:3 *425:4 0.372866
9 *425:2 *425:3 1.4
10 *425:1 *425:2 0.248566
11 *611:Y *425:1 1.4
*END

*D_NET *426 0.00117827

*CONN
*I *487:D I *C 77.865 42.775 *L 0.00276 *D SDFFRHQX1
*I *610:Y O *C 80.185 50.895 *L 0 *D MX2X1

*CAP
1 *426:1 0.000416859
2 *426:2 0.000416859
3 *426:3 0.000111385
4 *426:4 0.000111385
5 *426:5 6.08897e-05
6 *426:6 6.08897e-05

*RES
1 *426:6 *610:Y 1.4
2 *426:5 *426:6 0.497132
3 *426:4 *426:5 1.4
4 *426:3 *426:4 0.994268
5 *426:2 *426:3 1.4
6 *426:1 *426:2 2.98279
7 *487:D *426:1 1.4
*END

*D_NET *427 0.00174377

*CONN
*I *489:D I *C 75.545 47.995 *L 0.00276 *D SDFFRHQX1
*I *609:Y O *C 76.415 58.725 *L 0 *D MX2X1

*CAP
1 *427:1 0.000156322
2 *427:2 0.000173691
3 *427:3 8.68457e-05
4 *427:4 6.94766e-05
5 *427:5 0.000132542
6 *427:6 0.00014911
7 *427:7 1.65678e-05
8 *427:8 0.000382841
9 *427:9 0.000382841
10 *427:10 9.6764e-05
11 *609:Y 9.6764e-05

*RES
1 *427:10 *609:Y 0.745698
2 *427:9 *427:10 1.4
3 *427:8 *427:9 2.85863
4 *427:7 *427:8 1.4
5 *427:6 *427:7 0.124283
6 *427:5 *427:6 0.994264
7 *427:4 *427:5 1.4
8 *427:3 *427:4 0.497132
9 *427:2 *427:3 0.124283
10 *427:1 *427:2 1.11855
11 *489:D *427:1 1.4
*END

*D_NET *428 0.000333787

*CONN
*I *509:D I *C 42.195 72.065 *L 0.00276 *D SDFFRHQX1
*I *608:Y O *C 42.775 74.385 *L 0 *D MX2X1

*CAP
1 *428:1 0.000100136
2 *428:2 0.000116825
3 *428:3 5.00681e-05
4 *428:4 5.00681e-05
5 *428:5 1.66894e-05

*RES
1 *428:5 *608:Y 1.4
2 *428:4 *428:5 0.124283
3 *428:3 *428:4 0.248566
4 *428:2 *428:3 0.124283
5 *428:1 *428:2 0.745698
6 *509:D *428:1 1.4
*END

*D_NET *429 0.00120163

*CONN
*I *508:D I *C 30.885 68.875 *L 0.00276 *D SDFFRHQX1
*I *607:Y O *C 33.205 76.995 *L 0 *D MX2X1

*CAP
1 *429:1 0.000150204
2 *429:2 0.000216962
3 *429:3 0.000350476
4 *429:4 0.000350476
5 *429:5 0.000100136
6 *429:6 3.33787e-05

*RES
1 *429:6 *607:Y 1.4
2 *429:5 *429:6 0.248566
3 *429:4 *429:5 0.497132
4 *429:3 *429:4 2.11281
5 *429:2 *429:3 0.497132
6 *429:1 *429:2 1.11855
7 *508:D *429:1 1.4
*END

*D_NET *430 0.000313418

*CONN
*I *507:D I *C 21.895 72.065 *L 0.00276 *D SDFFRHQX1
*I *606:Y O *C 22.475 74.385 *L 0 *D MX2X1

*CAP
1 *430:1 9.40254e-05
2 *430:2 0.000109696
3 *430:3 4.70127e-05
4 *430:4 4.70127e-05
5 *430:5 1.56709e-05

*RES
1 *430:5 *606:Y 1.4
2 *430:4 *430:5 0.124283
3 *430:3 *430:4 0.248565
4 *430:2 *430:3 0.124283
5 *430:1 *430:2 0.745696
6 *507:D *430:1 1.4
*END

*D_NET *431 0.00094007

*CONN
*I *605:Y O *C 12.035 76.995 *L 0 *D MX2X1
*I *506:D I *C 12.615 68.875 *L 0.00276 *D SDFFRHQX1

*CAP
1 *605:Y 3.12496e-05
2 *431:1 3.12496e-05
3 *431:2 0.000438785
4 *431:3 0.000438785

*RES
1 *431:3 *506:D 1.4
2 *431:2 *431:3 3.47992
3 *431:1 *431:2 1.4
4 *605:Y *431:1 0.248578
*END

*D_NET *432 0.00106424

*CONN
*I *604:Y O *C 5.365 69.165 *L 0 *D MX2X1
*I *505:D I *C 9.715 63.655 *L 0.00276 *D SDFFRHQX1

*CAP
1 *432:0 0.000109696
2 *432:1 0.000109696
3 *432:2 0.000234372
4 *432:4 0.000234372
5 *432:5 0.000188051
6 *432:6 0.000188051

*RES
1 *432:6 *505:D 1.4
2 *432:5 *432:6 1.49139
3 *432:4 *432:5 1.4
4 *432:2 *432:4 1.86433
5 *432:1 *604:Y 1.4
6 *432:0 *432:2 1.4
7 *432:0 *432:1 0.869979
*END

*D_NET *433 0.000594664

*CONN
*I *504:D I *C 12.035 66.845 *L 0.00276 *D SDFFRHQX1
*I *603:Y O *C 14.645 63.945 *L 0 *D MX2X1

*CAP
1 *433:0 7.83545e-05
2 *433:1 0.000140623
3 *433:2 7.83545e-05
4 *433:3 0.000140623
5 *433:5 7.83545e-05
6 *433:6 7.83545e-05

*RES
1 *433:6 *603:Y 1.4
2 *433:5 *433:6 0.621413
3 *433:3 *433:5 1.4
4 *433:2 *504:D 1.4
5 *433:1 *433:3 1.1186
6 *433:0 *433:2 0.621413
7 *433:0 *433:1 1.4
*END

*D_NET *434 0.00116765

*CONN
*I *602:Y O *C 23.635 69.165 *L 0 *D MX2X1
*I *503:D I *C 30.885 66.845 *L 0.00276 *D SDFFRHQX1

*CAP
1 *434:0 4.70127e-05
2 *434:1 4.70127e-05
3 *434:2 4.68743e-05
4 *434:4 6.24991e-05
5 *434:5 0.000336794
6 *434:6 0.000338594
7 *434:7 6.96988e-05
8 *434:8 5.22741e-05
9 *434:9 8.34468e-05
10 *434:10 8.34468e-05

*RES
1 *434:10 *503:D 1.4
2 *434:9 *434:10 0.621415
3 *434:8 *434:9 1.4
4 *434:7 *434:8 0.372866
5 *434:6 *434:7 0.124289
6 *434:5 *434:6 2.36149
7 *434:4 *434:5 0.124289
8 *434:2 *434:4 0.372866
9 *434:1 *602:Y 1.4
10 *434:0 *434:2 1.4
11 *434:0 *434:1 0.372848
*END

*D_NET *435 0.0010043

*CONN
*I *601:Y O *C 39.875 76.995 *L 0 *D MX2X1
*I *502:D I *C 40.455 68.875 *L 0.00276 *D SDFFRHQX1

*CAP
1 *601:Y 3.48494e-05
2 *435:1 3.48494e-05
3 *435:2 0.000467302
4 *435:3 0.000467302

*RES
1 *435:3 *502:D 1.4
2 *435:2 *435:3 3.47992
3 *435:1 *435:2 1.4
4 *601:Y *435:1 0.248578
*END

*D_NET *436 0.000901225

*CONN
*I *501:D I *C 37.845 74.095 *L 0.00276 *D SDFFRHQX1
*I *600:Y O *C 38.135 66.555 *L 0 *D MX2X1

*CAP
1 *436:0 0.000116825
2 *436:1 0.000350476
3 *436:2 0.000100136
4 *436:3 0.000333787

*RES
1 *436:3 *600:Y 1.4
2 *436:2 *501:D 1.4
3 *436:1 *436:3 2.48566
4 *436:0 *436:2 0.745698
5 *436:0 *436:1 0.124283
*END

*D_NET *437 0.000671986

*CONN
*I *599:Y O *C 30.595 76.995 *L 0 *D MX2X1
*I *500:D I *C 31.465 72.065 *L 0.00276 *D SDFFRHQX1

*CAP
1 *437:0 0.000200272
2 *437:1 0.000200272
3 *437:2 5.22741e-05
4 *437:4 5.22741e-05
5 *437:5 8.34468e-05
6 *437:6 8.34468e-05

*RES
1 *437:6 *500:D 1.4
2 *437:5 *437:6 0.621415
3 *437:4 *437:5 1.4
4 *437:2 *437:4 0.372866
5 *437:1 *599:Y 1.4
6 *437:0 *437:2 1.4
7 *437:0 *437:1 1.4914
*END

*D_NET *438 0.000376102

*CONN
*I *598:Y O *C 17.545 76.995 *L 0 *D MX2X1
*I *499:D I *C 17.545 74.095 *L 0.00276 *D SDFFRHQX1

*CAP
1 *438:0 6.26836e-05
2 *438:1 6.26836e-05
3 *438:2 0.000125367
4 *438:3 1.56709e-05
5 *438:4 0.000109696

*RES
1 *438:4 *499:D 1.4
2 *438:3 *598:Y 1.4
3 *438:2 *438:4 0.869979
4 *438:1 *438:3 0.124283
5 *438:0 *438:2 0.124283
6 *438:0 *438:1 0.372848
*END

*D_NET *439 0.000813411

*CONN
*I *595:Y O *C 5.075 58.725 *L 0 *D MX2X1
*I *497:D I *C 9.715 61.625 *L 0.00276 *D SDFFRHQX1

*CAP
1 *439:1 9.40254e-05
2 *439:2 9.40254e-05
3 *439:3 0.000249996
4 *439:4 0.000249996
5 *439:5 6.26836e-05
6 *439:6 6.26836e-05

*RES
1 *439:6 *497:D 1.4
2 *439:5 *439:6 0.497131
3 *439:4 *439:5 1.4
4 *439:3 *439:4 1.98862
5 *439:2 *439:3 1.4
6 *439:1 *439:2 0.745696
7 *595:Y *439:1 1.4
*END

*D_NET *440 0.000719478

*CONN
*I *594:Y O *C 7.975 56.115 *L 0 *D MX2X1
*I *496:D I *C 12.325 58.435 *L 0.00276 *D SDFFRHQX1

*CAP
1 *594:Y 0.000234372
2 *440:1 0.000234372
3 *440:2 0.000125367
4 *440:3 0.000125367

*RES
1 *440:3 *496:D 1.4
2 *440:2 *440:3 0.994261
3 *440:1 *440:2 1.4
4 *594:Y *440:1 1.86433
*END

*D_NET *441 0.00168217

*CONN
*I *495:D I *C 31.755 63.655 *L 0.00276 *D SDFFRHQX1
*I *593:Y O *C 29.145 74.385 *L 0 *D MX2X1

*CAP
1 *441:2 0.000104548
2 *441:4 0.000104548
3 *441:5 5.00681e-05
4 *441:6 8.34468e-05
5 *441:7 0.000350476
6 *441:8 0.000350476
7 *441:9 0.000283719
8 *441:10 0.00025034
9 *441:11 5.22741e-05
10 *593:Y 5.22741e-05

*RES
1 *441:11 *593:Y 0.372866
2 *441:10 *441:11 1.4
3 *441:9 *441:10 1.86424
4 *441:8 *441:9 0.248566
5 *441:7 *441:8 2.36138
6 *441:6 *441:7 0.248566
7 *441:5 *441:6 0.372849
8 *441:4 *441:5 1.4
9 *441:2 *441:4 0.745732
10 *441:1 *495:D 1.4
11 *441:1 *441:2 1.4
12 *441:0 *441:1 0.220714
*END

*D_NET *442 0.000825437

*CONN
*I *592:Y O *C 52.635 76.995 *L 0 *D MX2X1
*I *494:D I *C 54.375 72.065 *L 0.00276 *D SDFFRHQX1

*CAP
1 *442:3 9.6764e-05
2 *442:4 9.6764e-05
3 *442:5 4.98875e-05
4 *442:6 6.65167e-05
5 *442:7 0.00019955
6 *442:8 0.00019955
7 *442:9 6.65167e-05
8 *442:10 4.98875e-05

*RES
1 *442:10 *494:D 1.4
2 *442:9 *442:10 0.372865
3 *442:8 *442:9 0.124288
4 *442:7 *442:8 1.36717
5 *442:6 *442:7 0.124288
6 *442:5 *442:6 0.372865
7 *442:4 *442:5 1.4
8 *442:3 *442:4 0.745698
9 *442:1 *442:3 1.4
10 *442:1 *592:Y 1.4
11 *442:0 *442:1 0.220714
*END

*D_NET *443 0.000367166

*CONN
*I *591:Y O *C 32.625 55.825 *L 0 *D NOR2XL
*I *588:B0 I *C 32.915 58.725 *L 0.00277 *D AOI21X1

*CAP
1 *443:1 6.67574e-05
2 *443:2 8.34468e-05
3 *443:3 0.000116825
4 *443:4 0.000100136

*RES
1 *443:4 *588:B0 1.4
2 *443:3 *443:4 0.745698
3 *443:2 *443:3 0.124283
4 *443:1 *443:2 0.497132
5 *591:Y *443:1 1.4
*END

*D_NET *444 0.000469481

*CONN
*I *498:D I *C 12.325 72.065 *L 0.00276 *D SDFFRHQX1
*I *590:Y O *C 10.295 74.385 *L 0 *D MX2X1

*CAP
1 *444:1 1.56709e-05
2 *444:2 0.000109373
3 *444:3 1.56709e-05
4 *444:4 0.000109373
5 *444:6 0.000109696
6 *444:7 0.000109696

*RES
1 *444:7 *590:Y 1.4
2 *444:6 *444:7 0.869979
3 *444:4 *444:6 1.4
4 *444:3 *498:D 1.4
5 *444:2 *444:4 0.870021
6 *444:1 *444:3 0.124283
7 *444:1 *444:2 1.4
8 *444:0 *444:1 0.212143
*END

*D_NET *445 0.00103243

*CONN
*I *597:Y O *C 16.965 56.695 *L 0 *D NAND2XL
*I *587:AN I *C 20.155 56.115 *L 0.00174 *D NOR2BX1
*I *583:A0 I *C 23.055 58.435 *L 0.00265 *D AOI21X1

*CAP
1 *445:1 1.56709e-05
2 *445:3 1.56709e-05
3 *445:4 0.000156248
4 *445:5 0.000312496
5 *445:6 0.000156248
6 *445:7 3.13418e-05
7 *445:8 0.000156709
8 *445:9 3.13418e-05
9 *445:10 0.000156709

*RES
1 *445:10 *583:A0 1.4
2 *445:9 *587:AN 1.4
3 *445:8 *445:10 1.24283
4 *445:7 *445:9 0.248565
5 *445:6 *445:8 1.4
6 *445:5 *445:7 1.4
7 *445:5 *445:6 1.24289
8 *445:4 *445:5 1.24289
9 *445:3 *445:4 1.4
10 *445:1 *445:3 0.124283
11 *445:1 *597:Y 1.4
12 *445:0 *445:1 0.212143
*END

*D_NET *446 0.00128298

*CONN
*I *596:Y O *C 17.255 61.045 *L 0 *D NOR2XL
*I *587:B I *C 19.575 56.405 *L 0.0028 *D NOR2BX1
*I *583:B0 I *C 23.635 58.725 *L 0.00277 *D AOI21X1

*CAP
1 *446:0 0.000156709
2 *446:1 0.000156709
3 *446:2 0.000124998
4 *446:4 0.000343745
5 *446:5 0.000218747
6 *446:6 0.000109696
7 *446:7 3.13418e-05
8 *446:8 0.000109696
9 *446:9 3.13418e-05

*RES
1 *446:9 *583:B0 1.4
2 *446:8 *587:B 1.4
3 *446:7 *446:9 0.248565
4 *446:6 *446:8 0.869979
5 *446:5 *446:7 1.4
6 *446:4 *446:6 1.4
7 *446:4 *446:5 1.74004
8 *446:2 *446:4 0.99431
9 *446:1 *596:Y 1.4
10 *446:0 *446:2 1.4
11 *446:0 *446:1 1.24283
*END

*D_NET *447 0.000439806

*CONN
*I *588:Y O *C 33.495 58.435 *L 0 *D AOI21X1
*I *586:S0 I *C 34.075 56.115 *L 0.00372 *D MXI2XL

*CAP
1 *447:0 3.33787e-05
2 *447:1 3.33787e-05
3 *447:2 6.96988e-05
4 *447:4 6.96988e-05
5 *447:5 0.000116825
6 *447:6 0.000116825

*RES
1 *447:6 *586:S0 1.4
2 *447:5 *447:6 0.869981
3 *447:4 *447:5 1.4
4 *447:2 *447:4 0.497155
5 *447:1 *588:Y 1.4
6 *447:0 *447:2 1.4
7 *447:0 *447:1 0.248566
*END

*D_NET *448 0.00207631

*CONN
*I *589:Y O *C 30.595 58.145 *L 0 *D AOI22X1
*I *585:A I *C 24.505 58.435 *L 0.00273 *D INVX1
*I *584:A I *C 21.025 56.115 *L 0.00157 *D NAND2XL
*I *582:A0 I *C 17.835 56.405 *L 0.00271 *D OAI21X1

*CAP
1 *448:3 0.000104548
2 *448:4 0.000121973
3 *448:5 0.000174247
4 *448:6 0.00032117
5 *448:7 9.46486e-05
6 *448:8 0.000273721
7 *448:9 3.13418e-05
8 *448:10 0.000219647
9 *448:11 3.13418e-05
10 *448:12 9.37487e-05
11 *448:14 0.000249996
12 *448:15 0.000171873
13 *448:16 4.70127e-05
14 *448:17 4.70127e-05
15 *448:18 4.70127e-05
16 *448:19 4.70127e-05

*RES
1 *448:19 *582:A0 1.4
2 *448:18 *584:A 1.4
3 *448:17 *448:19 0.372848
4 *448:16 *448:18 0.372848
5 *448:15 *448:17 1.4
6 *448:14 *448:16 1.4
7 *448:14 *448:15 1.36718
8 *448:12 *448:14 0.621444
9 *448:11 *585:A 1.4
10 *448:10 *448:12 0.124289
11 *448:9 *448:11 0.248565
12 *448:8 *448:10 1.61575
13 *448:7 *448:9 1.4
14 *448:6 *448:8 0.497155
15 *448:6 *448:7 0.745733
16 *448:5 *448:6 1.1186
17 *448:4 *448:5 0.124289
18 *448:3 *448:4 0.745732
19 *448:1 *448:3 1.4
20 *448:1 *589:Y 1.4
21 *448:0 *448:1 0.220714
*END

*D_NET *449 0.000375087

*CONN
*I *582:A1 I *C 18.125 56.115 *L 0.00274 *D OAI21X1
*I *587:Y O *C 19.295 56.405 *L 0 *D NOR2BX1
*I *584:B I *C 21.605 56.115 *L 0.00167 *D NAND2XL

*CAP
1 *449:2 4.68743e-05
2 *449:4 0.000171873
3 *449:5 1.56709e-05
4 *449:6 0.000124998
5 *449:7 1.56709e-05

*RES
1 *449:8 *584:B 1.4
2 *449:8 *449:11 0.220714
3 *449:7 *449:10 0.212143
4 *449:7 *587:Y 1.4
5 *449:6 *449:8 1.4
6 *449:5 *449:7 0.124283
7 *449:4 *449:6 0.99431
8 *449:4 *449:5 1.4
9 *449:2 *449:4 0.372866
10 *449:1 *582:A1 1.4
11 *449:1 *449:2 1.4
12 *449:0 *449:1 0.220714
*END

*D_NET *450 0.00160694

*CONN
*I *580:A I *C 33.205 53.505 *L 0.0017 *D MX2X1
*I *586:Y O *C 33.495 56.695 *L 0 *D MXI2XL
*I *581:A I *C 40.455 50.895 *L 0.0017 *D MX2X1

*CAP
1 *450:0 0.000100988
2 *450:1 0.000167746
3 *450:2 0.000155708
4 *450:3 8.34468e-05
5 *450:5 0.000173009
6 *450:6 0.000116825
7 *450:7 0.000224912
8 *450:8 0.000100136
9 *450:9 0.000224912
10 *450:11 8.65047e-05
11 *450:12 6.92037e-05
12 *450:13 5.17727e-05
13 *450:14 5.17727e-05

*RES
1 *450:14 *581:A 1.4
2 *450:13 *450:14 0.37285
3 *450:12 *450:13 1.4
4 *450:11 *450:12 0.497132
5 *450:9 *450:11 0.124283
6 *450:8 *586:Y 1.4
7 *450:7 *450:9 1.49139
8 *450:6 *450:8 0.745698
9 *450:5 *450:7 0.124283
10 *450:3 *450:6 0.124283
11 *450:2 *450:5 1.11855
12 *450:1 *580:A 1.4
13 *450:1 *450:3 0.497132
14 *450:0 *450:2 1.4
15 *450:0 *450:1 0.745698
*END

*D_NET *451 0.000313418

*CONN
*I *583:A1 I *C 23.345 58.435 *L 0.00278 *D AOI21X1
*I *585:Y O *C 24.8775 58.435 *L 0 *D INVX1

*CAP
1 *451:1 3.13418e-05
2 *451:2 0.000109696
3 *451:3 0.000125367
4 *451:4 4.70127e-05

*RES
1 *451:4 *585:Y 1.4
2 *451:3 *451:4 0.372848
3 *451:2 *451:3 0.621413
4 *451:1 *451:2 0.248565
5 *583:A1 *451:1 1.4
*END

*D_NET *452 0.000563138

*CONN
*I *582:B0 I *C 18.705 56.405 *L 0.0028 *D OAI21X1
*I *584:Y O *C 21.605 56.695 *L 0 *D NAND2XL

*CAP
1 *452:0 6.26836e-05
2 *452:1 0.000171873
3 *452:2 6.26836e-05
4 *452:3 0.000171873
5 *452:5 4.70127e-05
6 *452:6 4.70127e-05

*RES
1 *452:6 *584:Y 1.4
2 *452:5 *452:6 0.372848
3 *452:3 *452:5 1.4
4 *452:2 *582:B0 1.4
5 *452:1 *452:3 1.36718
6 *452:0 *452:2 0.497131
7 *452:0 *452:1 1.4
*END

*D_NET *453 0.000844199

*CONN
*I *577:CI I *C 17.835 58.145 *L 0.00487 *D ADDFX1
*I *583:Y O *C 24.215 58.435 *L 0 *D AOI21X1

*CAP
1 *453:0 3.13418e-05
2 *453:1 0.000343745
3 *453:2 3.13418e-05
4 *453:3 0.000343745
5 *453:5 4.70127e-05
6 *453:6 4.70127e-05

*RES
1 *453:6 *583:Y 1.4
2 *453:5 *453:6 0.372848
3 *453:3 *453:5 1.4
4 *453:2 *577:CI 1.4
5 *453:1 *453:3 2.73435
6 *453:0 *453:2 0.248565
7 *453:0 *453:1 1.4
*END

*D_NET *454 0.00105398

*CONN
*I *578:A I *C 17.255 50.895 *L 0.0017 *D MX2X1
*I *579:A I *C 19.865 50.895 *L 0.0017 *D MX2X1
*I *582:Y O *C 18.995 56.695 *L 0 *D OAI21X1

*CAP
1 *454:2 0.000143171
2 *454:4 0.000143171
3 *454:5 6.74337e-05
4 *454:6 0.000101151
5 *454:9 0.00019102
6 *454:10 0.000235657
7 *454:11 0.000125367
8 *454:12 4.70127e-05

*RES
1 *454:12 *582:Y 1.4
2 *454:11 *454:12 0.372848
3 *454:10 *454:11 0.621413
4 *454:9 *454:10 1.24283
5 *454:6 *454:9 0.248578
6 *454:5 *579:A 1.4
7 *454:5 *454:7 0.220714
8 *454:5 *454:6 0.497155
9 *454:4 *454:5 1.4
10 *454:2 *454:4 1.1186
11 *454:1 *578:A 1.4
12 *454:1 *454:2 1.4
13 *454:0 *454:1 0.220714
*END

*D_NET *455 0.000479841

*CONN
*I *581:Y O *C 42.195 50.895 *L 0 *D MX2X1
*I *522:D I *C 43.935 53.215 *L 0.00276 *D SDFFRHQX1

*CAP
1 *581:Y 0.000103806
2 *455:1 0.000121107
3 *455:2 1.73009e-05
4 *455:3 0.000118814
5 *455:4 0.000118814

*RES
1 *455:4 *522:D 1.4
2 *455:3 *455:4 0.869982
3 *455:2 *455:3 1.4
4 *455:1 *455:2 0.124283
5 *581:Y *455:1 0.745697
*END

*D_NET *456 0.000788266

*CONN
*I *580:Y O *C 34.945 53.505 *L 0 *D MX2X1
*I *531:D I *C 36.105 47.995 *L 0.00276 *D SDFFRHQX1

*CAP
1 *580:Y 3.48494e-05
2 *456:1 3.48494e-05
3 *456:2 6.67574e-05
4 *456:3 8.34468e-05
5 *456:4 3.36628e-05
6 *456:5 3.4231e-05
7 *456:6 0.000258864
8 *456:7 0.000241606

*RES
1 *456:7 *531:D 1.4
2 *456:6 *456:7 1.73997
3 *456:5 *456:6 0.124283
4 *456:4 *456:5 0.124283
5 *456:3 *456:4 0.124283
6 *456:2 *456:3 0.497132
7 *456:1 *456:2 1.4
8 *580:Y *456:1 0.248578
*END

*D_NET *457 0.000837908

*CONN
*I *523:D I *C 16.385 53.215 *L 0.00276 *D SDFFRHQX1
*I *579:Y O *C 21.605 50.895 *L 0 *D MX2X1

*CAP
1 *457:0 8.01358e-05
2 *457:1 0.000254526
3 *457:2 8.01358e-05
4 *457:3 0.000254526
5 *457:5 3.37169e-05
6 *457:6 8.42922e-05
7 *457:7 5.05753e-05

*RES
1 *457:7 *579:Y 1.4
2 *457:6 *457:7 0.372866
3 *457:5 *457:6 0.248578
4 *457:3 *457:5 1.4
5 *457:2 *523:D 1.4
6 *457:1 *457:3 1.98862
7 *457:0 *457:2 0.621423
8 *457:0 *457:1 1.4
*END

*D_NET *458 0.000574584

*CONN
*I *532:D I *C 14.065 51.185 *L 0.00276 *D SDFFRHQX1
*I *578:Y O *C 18.995 50.895 *L 0 *D MX2X1

*CAP
1 *458:2 0.000270434
2 *458:4 0.000270434
3 *458:5 1.68584e-05
4 *458:6 1.68584e-05

*RES
1 *458:6 *578:Y 1.4
2 *458:5 *458:7 0.212143
3 *458:5 *458:6 0.124289
4 *458:4 *458:5 1.4
5 *458:2 *458:4 2.11291
6 *458:1 *532:D 1.4
7 *458:1 *458:2 1.4
8 *458:0 *458:1 0.220714
*END

*D_NET *459 0.000907252

*CONN
*I *577:CO O *C 15.24 58.555 *L 0 *D ADDFX1
*I *574:CI I *C 20.445 61.915 *L 0.00487 *D ADDFX1

*CAP
1 *459:1 9.40254e-05
2 *459:2 9.40254e-05
3 *459:3 0.000281246
4 *459:4 0.000281246
5 *459:5 7.83545e-05
6 *459:6 7.83545e-05

*RES
1 *459:6 *574:CI 1.4
2 *459:5 *459:6 0.621413
3 *459:4 *459:5 1.4
4 *459:3 *459:4 2.2372
5 *459:2 *459:3 1.4
6 *459:1 *459:2 0.745696
7 *577:CO *459:1 1.4
*END

*D_NET *460 0.00324783

*CONN
*I *576:A1 I *C 13.195 56.115 *L 0.00274 *D OAI21X1
*I *577:S O *C 22.475 58.145 *L 0 *D ADDFX1
*I *575:A1 I *C 19.285 43.065 *L 0.00274 *D OAI21X1

*CAP
1 *460:0 9.40254e-05
2 *460:1 0.000499993
3 *460:2 9.40254e-05
4 *460:3 0.000499993
5 *460:5 0.000530796
6 *460:6 0.000219393
7 *460:7 0.000361979
8 *460:9 0.000269735
9 *460:10 0.00021916
10 *460:11 0.000111355
11 *460:12 0.000111355
12 *460:13 0.000118009
13 *460:14 0.000118009

*RES
1 *460:14 *575:A1 1.4
2 *460:13 *460:14 0.870021
3 *460:12 *460:13 1.4
4 *460:11 *460:12 0.870021
5 *460:10 *460:11 1.4
6 *460:9 *460:10 1.61575
7 *460:7 *460:9 0.372866
8 *460:6 *577:S 1.4
9 *460:5 *460:7 2.36144
10 *460:5 *460:6 1.73996
11 *460:3 *460:5 1.4
12 *460:2 *576:A1 1.4
13 *460:1 *460:3 3.97724
14 *460:0 *460:2 0.745696
15 *460:0 *460:1 1.4
*END

*D_NET *461 0.00117224

*CONN
*I *533:D I *C 12.905 47.995 *L 0.00276 *D SDFFRHQX1
*I *576:Y O *C 14.065 56.695 *L 0 *D OAI21X1

*CAP
1 *461:0 0.000202301
2 *461:1 0.000236018
3 *461:2 6.74337e-05
4 *461:3 0.000301904
5 *461:4 5.05753e-05
6 *461:5 0.00028267
7 *461:7 3.13418e-05

*RES
1 *461:7 *576:Y 1.4
2 *461:5 *461:7 0.248565
3 *461:4 *533:D 1.4
4 *461:3 *461:5 1.98853
5 *461:2 *461:4 0.372866
6 *461:1 *461:3 0.372866
7 *461:0 *461:2 0.124289
8 *461:0 *461:1 1.36718
*END

*D_NET *462 0.000398899

*CONN
*I *524:D I *C 19.285 45.965 *L 0.00276 *D SDFFRHQX1
*I *575:Y O *C 20.155 42.485 *L 0 *D OAI21X1

*CAP
1 *462:0 0.000118009
2 *462:1 4.77236e-05
3 *462:2 0.000118009
4 *462:3 4.77236e-05
5 *462:5 3.37169e-05
6 *462:6 3.37169e-05

*RES
1 *462:6 *575:Y 1.4
2 *462:5 *462:6 0.248578
3 *462:3 *462:5 1.4
4 *462:2 *524:D 1.4
5 *462:1 *462:3 0.372866
6 *462:0 *462:2 0.870021
7 *462:0 *462:1 1.4
*END

*D_NET *463 0.00156723

*CONN
*I *574:CO O *C 17.85 61.505 *L 0 *D ADDFX1
*I *571:CI I *C 30.595 61.915 *L 0.00487 *D ADDFX1

*CAP
1 *463:3 0.000506292
2 *463:4 0.000523717
3 *463:5 0.000174247
4 *463:6 0.000174247
5 *463:7 6.96988e-05
6 *463:8 5.22741e-05
7 *463:9 3.33787e-05
8 *463:10 3.33787e-05

*RES
1 *463:10 *571:CI 1.4
2 *463:9 *463:10 0.248566
3 *463:8 *463:9 1.4
4 *463:7 *463:8 0.372866
5 *463:6 *463:7 0.124289
6 *463:5 *463:6 1.1186
7 *463:4 *463:5 0.124289
8 *463:3 *463:4 3.97724
9 *463:1 *463:3 1.4
10 *463:1 *574:CO 1.4
11 *463:0 *463:1 0.220714
*END

*D_NET *464 0.00297582

*CONN
*I *573:A1 I *C 17.545 43.065 *L 0.00274 *D OAI21X1
*I *572:A1 I *C 22.475 45.675 *L 0.00274 *D OAI21X1
*I *574:S O *C 25.085 61.915 *L 0 *D ADDFX1

*CAP
1 *464:1 8.42922e-05
2 *464:2 8.42922e-05
3 *464:3 0.000270434
4 *464:4 0.000270434
5 *464:5 6.74337e-05
6 *464:6 0.000236018
7 *464:7 0.000236018
8 *464:9 0.000536734
9 *464:10 0.000563326
10 *464:11 0.000250734
11 *464:12 0.00017238
12 *464:13 0.000109696
13 *464:14 9.40254e-05

*RES
1 *464:14 *574:S 1.4
2 *464:13 *464:14 0.745696
3 *464:12 *464:13 0.124283
4 *464:11 *464:12 1.24283
5 *464:10 *464:11 0.745696
6 *464:9 *464:10 3.60427
7 *464:7 *464:9 0.497155
8 *464:6 *572:A1 1.4
9 *464:6 *464:7 1.24289
10 *464:5 *464:6 0.497155
11 *464:4 *464:5 1.4
12 *464:3 *464:4 2.11291
13 *464:2 *464:3 1.4
14 *464:1 *464:2 0.621444
15 *573:A1 *464:1 1.4
*END

*D_NET *465 0.000576486

*CONN
*I *573:Y O *C 18.415 42.485 *L 0 *D OAI21X1
*I *534:D I *C 14.355 42.775 *L 0.00276 *D SDFFRHQX1

*CAP
1 *465:2 1.59079e-05
2 *465:3 0.000238618
3 *573:Y 1.59079e-05
4 *465:5 0.000238618
5 *465:6 3.37169e-05
6 *465:7 3.37169e-05

*RES
1 *465:7 *534:D 1.4
2 *465:6 *465:7 0.248578
3 *465:5 *465:6 1.4
4 *465:3 *465:5 1.86433
5 *465:2 *573:Y 0.124289
6 *465:1 *465:3 1.4
7 *465:1 *465:2 1.4
8 *465:0 *465:1 0.220714
*END

*D_NET *466 0.000269735

*CONN
*I *572:Y O *C 23.345 46.255 *L 0 *D OAI21X1
*I *525:D I *C 22.765 47.995 *L 0.00276 *D SDFFRHQX1

*CAP
1 *466:0 0.000134867
2 *466:1 3.37169e-05
3 *466:2 0.000101151

*RES
1 *466:2 *525:D 1.4
2 *466:1 *572:Y 1.4
3 *466:0 *466:2 0.745732
4 *466:0 *466:1 0.248578
*END

*D_NET *467 0.00135618

*CONN
*I *568:CI I *C 38.135 61.915 *L 0.00487 *D ADDFX1
*I *571:CO O *C 28 61.505 *L 0 *D ADDFX1

*CAP
1 *467:2 0.000627289
2 *467:4 0.000627289
3 *467:5 3.33787e-05
4 *467:6 3.33787e-05
5 *467:7 1.74247e-05
6 *571:CO 1.74247e-05

*RES
1 *467:7 *571:CO 0.124289
2 *467:6 *467:7 1.4
3 *467:5 *467:6 0.248566
4 *467:4 *467:5 1.4
5 *467:2 *467:4 4.4744
6 *467:1 *568:CI 1.4
7 *467:1 *467:2 1.4
8 *467:0 *467:1 0.220714
*END

*D_NET *468 0.00244648

*CONN
*I *570:A1 I *C 27.985 48.285 *L 0.00274 *D OAI21X1
*I *569:A1 I *C 29.145 50.895 *L 0.00274 *D OAI21X1
*I *571:S O *C 35.235 61.915 *L 0 *D ADDFX1

*CAP
1 *468:1 5.17727e-05
2 *468:2 0.000103545
3 *468:3 0.000155318
4 *468:4 0.000103545
5 *468:5 0.000346019
6 *468:7 0.000346019
7 *468:8 0.00043648
8 *468:9 0.000453169
9 *468:10 0.000200272
10 *468:11 0.000216962
11 *468:12 3.33787e-05

*RES
1 *468:12 *571:S 1.4
2 *468:11 *468:12 0.248566
3 *468:10 *468:11 1.36711
4 *468:9 *468:10 0.124283
5 *468:8 *468:9 3.23136
6 *468:7 *468:8 1.4
7 *468:5 *468:7 2.48566
8 *468:4 *569:A1 1.4
9 *468:4 *468:5 1.4
10 *468:3 *468:4 0.7457
11 *468:2 *468:3 0.37285
12 *468:1 *468:2 0.37285
13 *570:A1 *468:1 1.4
*END

*D_NET *469 0.000899128

*CONN
*I *535:D I *C 34.655 45.965 *L 0.00276 *D SDFFRHQX1
*I *570:Y O *C 28.855 47.705 *L 0 *D OAI21X1

*CAP
1 *469:2 0.000346019
2 *469:4 0.000346019
3 *469:5 0.000103545
4 *469:6 0.000103545

*RES
1 *469:6 *570:Y 1.4
2 *469:5 *469:6 0.7457
3 *469:4 *469:5 1.4
4 *469:2 *469:4 2.48566
5 *469:1 *535:D 1.4
6 *469:1 *469:2 1.4
7 *469:0 *469:1 0.220714
*END

*D_NET *470 0.00155483

*CONN
*I *569:Y O *C 30.015 51.475 *L 0 *D OAI21X1
*I *526:D I *C 35.235 42.775 *L 0.00276 *D SDFFRHQX1

*CAP
1 *470:0 3.45151e-05
2 *470:1 3.45151e-05
3 *470:2 5.19028e-05
4 *470:4 6.92037e-05
5 *470:5 0.000276815
6 *470:6 0.000259514
7 *470:7 0.000414182
8 *470:8 0.000414182

*RES
1 *470:8 *526:D 1.4
2 *470:7 *470:8 2.9828
3 *470:6 *470:7 1.4
4 *470:5 *470:6 1.86424
5 *470:4 *470:5 0.124283
6 *470:2 *470:4 0.372849
7 *470:1 *569:Y 1.4
8 *470:0 *470:2 1.4
9 *470:0 *470:1 0.248567
*END

*D_NET *471 0.00142588

*CONN
*I *568:CO O *C 35.54 61.505 *L 0 *D ADDFX1
*I *565:CI I *C 45.675 61.915 *L 0.00487 *D ADDFX1

*CAP
1 *471:3 5.22741e-05
2 *471:4 6.96988e-05
3 *471:5 0.000156822
4 *471:6 0.000156822
5 *471:7 0.000174247
6 *471:8 0.000174247
7 *471:9 0.000226521
8 *471:10 0.000226521
9 *471:11 6.96988e-05
10 *471:12 5.22741e-05
11 *471:13 3.33787e-05
12 *471:14 3.33787e-05

*RES
1 *471:14 *565:CI 1.4
2 *471:13 *471:14 0.248566
3 *471:12 *471:13 1.4
4 *471:11 *471:12 0.372866
5 *471:10 *471:11 0.124289
6 *471:9 *471:10 1.49146
7 *471:8 *471:9 0.124289
8 *471:7 *471:8 1.1186
9 *471:6 *471:7 0.124289
10 *471:5 *471:6 0.99431
11 *471:4 *471:5 0.124289
12 *471:3 *471:4 0.372866
13 *471:1 *471:3 1.4
14 *471:1 *568:CO 1.4
15 *471:0 *471:1 0.220714
*END

*D_NET *472 0.00241758

*CONN
*I *566:A1 I *C 37.845 45.675 *L 0.00274 *D OAI21X1
*I *567:A1 I *C 39.295 48.285 *L 0.00274 *D OAI21X1
*I *568:S O *C 42.775 61.915 *L 0 *D ADDFX1

*CAP
1 *472:1 8.62879e-05
2 *472:2 8.62879e-05
3 *472:3 5.19028e-05
4 *472:4 5.19028e-05
5 *472:5 1.72576e-05
6 *472:6 8.62879e-05
7 *472:7 0.000120803
8 *472:8 6.90303e-05
9 *472:10 0.000590662
10 *472:11 0.000573404
11 *472:12 0.000191672
12 *472:13 0.000191672
13 *472:14 0.000150204
14 *472:15 0.000150204

*RES
1 *472:15 *568:S 1.4
2 *472:14 *472:15 1.11855
3 *472:13 *472:14 1.4
4 *472:12 *472:13 1.36718
5 *472:11 *472:12 1.4
6 *472:10 *472:11 4.22563
7 *472:8 *472:10 0.124283
8 *472:7 *567:A1 1.4
9 *472:7 *472:8 0.37285
10 *472:6 *472:7 0.497134
11 *472:5 *472:6 0.124283
12 *472:4 *472:5 1.4
13 *472:3 *472:4 0.372849
14 *472:2 *472:3 1.4
15 *472:1 *472:2 0.621417
16 *566:A1 *472:1 1.4
*END

*D_NET *473 0.00158952

*CONN
*I *536:D I *C 36.395 40.745 *L 0.00276 *D SDFFRHQX1
*I *567:Y O *C 40.165 47.705 *L 0 *D OAI21X1

*CAP
1 *473:1 6.90303e-05
2 *473:2 6.90303e-05
3 *473:3 0.000294116
4 *473:4 0.000294116
5 *473:5 0.000362409
6 *473:6 0.000362409
7 *473:7 6.92037e-05
8 *567:Y 6.92037e-05

*RES
1 *473:7 *567:Y 0.497132
2 *473:6 *473:7 1.4
3 *473:5 *473:6 2.60995
4 *473:4 *473:5 1.4
5 *473:3 *473:4 2.11281
6 *473:2 *473:3 1.4
7 *473:1 *473:2 0.497134
8 *536:D *473:1 1.4
*END

*D_NET *474 0.000759333

*CONN
*I *527:D I *C 37.265 51.185 *L 0.00276 *D SDFFRHQX1
*I *566:Y O *C 38.715 46.255 *L 0 *D OAI21X1

*CAP
1 *474:0 0.000120803
2 *474:1 0.000224348
3 *474:2 5.17727e-05
4 *474:3 0.000172576
5 *474:5 0.000103545
6 *474:6 8.62879e-05

*RES
1 *474:6 *566:Y 1.4
2 *474:5 *474:6 0.621417
3 *474:3 *474:5 0.124283
4 *474:2 *527:D 1.4
5 *474:1 *474:3 1.11855
6 *474:0 *474:2 0.37285
7 *474:0 *474:1 0.497134
*END

*D_NET *475 0.00113385

*CONN
*I *565:CO O *C 43.08 61.505 *L 0 *D ADDFX1
*I *562:CI I *C 49.445 58.145 *L 0.00486 *D ADDFXL

*CAP
1 *475:0 8.34468e-05
2 *475:1 8.34468e-05
3 *475:2 0.000383343
4 *475:4 0.000383343
5 *475:5 0.000100136
6 *475:6 0.000100136

*RES
1 *475:6 *562:CI 1.4
2 *475:5 *475:6 0.745698
3 *475:4 *475:5 1.4
4 *475:2 *475:4 2.73435
5 *475:1 *565:CO 1.4
6 *475:0 *475:2 1.4
7 *475:0 *475:1 0.621415
*END

*D_NET *476 0.00234261

*CONN
*I *564:A1 I *C 45.385 48.285 *L 0.00274 *D OAI21X1
*I *563:A1 I *C 47.125 50.895 *L 0.00274 *D OAI21X1
*I *565:S O *C 50.315 61.915 *L 0 *D ADDFX1

*CAP
1 *476:1 0.000120803
2 *476:2 0.000155318
3 *476:3 0.000440458
4 *476:4 0.00035417
5 *476:5 8.62879e-05
6 *476:6 0.000191672
7 *476:7 3.45151e-05
8 *476:8 0.000191672
9 *476:10 3.33787e-05
10 *476:11 0.000100136
11 *476:12 0.000216962
12 *476:13 0.000166894
13 *476:14 0.000133515
14 *476:15 0.000116825

*RES
1 *476:15 *565:S 1.4
2 *476:14 *476:15 0.869981
3 *476:13 *476:14 0.124283
4 *476:12 *476:13 1.11855
5 *476:11 *476:12 0.497132
6 *476:10 *476:11 0.248566
7 *476:8 *476:10 1.4
8 *476:7 *563:A1 1.4
9 *476:6 *476:8 1.36718
10 *476:5 *476:7 0.248567
11 *476:4 *476:6 1.4
12 *476:3 *476:5 0.37285
13 *476:3 *476:4 2.60995
14 *476:2 *476:3 0.248567
15 *476:1 *476:2 0.869984
16 *564:A1 *476:1 1.4
*END

*D_NET *477 0.000587711

*CONN
*I *537:D I *C 49.445 45.965 *L 0.00276 *D SDFFRHQX1
*I *564:Y O *C 46.255 47.705 *L 0 *D OAI21X1

*CAP
1 *477:2 0.00019031
2 *477:4 0.00019031
3 *477:5 0.000103545
4 *477:6 0.000103545

*RES
1 *477:6 *564:Y 1.4
2 *477:5 *477:6 0.7457
3 *477:4 *477:5 1.4
4 *477:2 *477:4 1.36711
5 *477:1 *537:D 1.4
6 *477:1 *477:2 1.4
7 *477:0 *477:1 0.220714
*END

*D_NET *478 0.00120803

*CONN
*I *563:Y O *C 47.995 51.475 *L 0 *D OAI21X1
*I *528:D I *C 50.315 42.775 *L 0.00276 *D SDFFRHQX1

*CAP
1 *478:0 0.000604015
2 *478:1 0.000465954
3 *478:2 0.000138061

*RES
1 *478:2 *528:D 1.4
2 *478:1 *563:Y 1.4
3 *478:0 *478:2 0.994267
4 *478:0 *478:1 3.35565
*END

*D_NET *479 0.00290196

*CONN
*I *562:CO O *C 46.835 59.015 *L 0 *D ADDFXL
*I *560:A I *C 52.055 50.895 *L 0.0017 *D MX2X1
*I *561:A I *C 55.535 43.065 *L 0.0017 *D MX2X1

*CAP
1 *479:0 0.000313644
2 *479:1 0.000200272
3 *479:2 0.000313644
4 *479:3 0.000200272
5 *479:4 0.000269587
6 *479:6 0.000373132
7 *479:7 0.000103545
8 *479:9 0.00019918
9 *479:10 0.00019918
10 *479:11 0.000364752
11 *479:12 0.000364752

*RES
1 *479:12 *561:A 1.4
2 *479:11 *479:12 2.60994
3 *479:10 *479:11 1.4
4 *479:9 *479:10 1.4914
5 *479:7 *479:9 1.4
6 *479:6 *560:A 1.4
7 *479:6 *479:7 0.7457
8 *479:4 *479:6 1.98853
9 *479:3 *562:CO 1.4
10 *479:2 *479:4 1.4
11 *479:1 *479:3 1.4914
12 *479:0 *479:2 2.2372
13 *479:0 *479:1 1.4
*END

*D_NET *480 0.00228805

*CONN
*I *559:A1 I *C 50.315 50.895 *L 0.00274 *D OAI21X1
*I *562:S O *C 53.795 58.145 *L 0 *D ADDFXL
*I *558:A1 I *C 53.795 43.065 *L 0.00274 *D OAI21X1

*CAP
1 *480:2 0.000120007
2 *480:4 0.000120007
3 *480:5 0.000511085
4 *480:6 0.000335913
5 *480:7 0.000260537
6 *480:8 6.65167e-05
7 *480:9 0.000156322
8 *480:10 6.65167e-05
9 *480:11 0.000121584
10 *480:12 0.000116404
11 *480:13 0.000173691
12 *480:14 8.31459e-05
13 *480:15 0.000156322

*RES
1 *480:15 *558:A1 1.4
2 *480:14 *562:S 1.4
3 *480:13 *480:15 1.11855
4 *480:12 *480:14 0.621441
5 *480:11 *480:13 0.124283
6 *480:10 *480:12 0.248577
7 *480:9 *480:11 0.745697
8 *480:8 *480:10 0.248577
9 *480:7 *480:9 0.372849
10 *480:6 *480:8 0.248577
11 *480:5 *480:7 1.49139
12 *480:5 *480:6 2.23716
13 *480:4 *480:5 1.4
14 *480:2 *480:4 0.869981
15 *480:1 *559:A1 1.4
16 *480:1 *480:2 1.4
17 *480:0 *480:1 0.220714
*END

*D_NET *481 0.00132274

*CONN
*I *561:Y O *C 57.275 43.065 *L 0 *D MX2X1
*I *530:D I *C 63.075 47.995 *L 0.00276 *D SDFFRHQX1

*CAP
1 *561:Y 0.000331356
2 *481:1 0.000331356
3 *481:2 5.21074e-05
4 *481:3 6.94766e-05
5 *481:4 0.00020843
6 *481:5 0.00020843
7 *481:6 6.94766e-05
8 *481:7 5.21074e-05

*RES
1 *481:7 *530:D 1.4
2 *481:6 *481:7 0.372849
3 *481:5 *481:6 0.124283
4 *481:4 *481:5 1.36711
5 *481:3 *481:4 0.124283
6 *481:2 *481:3 0.372849
7 *481:1 *481:2 1.4
8 *561:Y *481:1 2.48566
*END

*D_NET *482 0.000863128

*CONN
*I *560:Y O *C 53.795 50.895 *L 0 *D MX2X1
*I *539:D I *C 61.045 51.185 *L 0.00276 *D SDFFRHQX1

*CAP
1 *482:3 4.97034e-05
2 *482:4 0.000165678
3 *482:5 0.000364492
4 *482:6 0.000248517
5 *482:7 1.73691e-05
6 *482:8 1.73691e-05

*RES
1 *482:8 *539:D 1.4
2 *482:7 *482:9 0.0878571
3 *482:7 *482:8 0.124283
4 *482:6 *482:7 1.4
5 *482:5 *482:6 1.86424
6 *482:4 *482:5 0.869981
7 *482:3 *482:4 0.372849
8 *482:1 *482:3 1.4
9 *482:1 *560:Y 1.4
10 *482:0 *482:1 0.03
*END

*D_NET *483 0.000582192

*CONN
*I *559:Y O *C 51.185 51.475 *L 0 *D OAI21X1
*I *538:D I *C 53.505 47.995 *L 0.00276 *D SDFFRHQX1

*CAP
1 *483:0 5.17727e-05
2 *483:1 5.17727e-05
3 *483:2 0.000135108
4 *483:4 0.000135108
5 *483:5 0.000104215
6 *483:6 0.000104215

*RES
1 *483:6 *538:D 1.4
2 *483:5 *483:6 0.745697
3 *483:4 *483:5 1.4
4 *483:2 *483:4 0.994264
5 *483:1 *559:Y 1.4
6 *483:0 *483:2 1.4
7 *483:0 *483:1 0.37285
*END

*D_NET *484 0.000913893

*CONN
*I *558:Y O *C 54.665 42.485 *L 0 *D OAI21X1
*I *529:D I *C 59.015 45.965 *L 0.00276 *D SDFFRHQX1

*CAP
1 *484:3 0.000248517
2 *484:4 0.000248517
3 *484:5 0.00020843
4 *484:6 0.00020843

*RES
1 *484:6 *529:D 1.4
2 *484:5 *484:6 1.49139
3 *484:4 *484:5 1.4
4 *484:3 *484:4 1.86424
5 *484:1 *484:3 1.4
6 *484:1 *558:Y 1.4
7 *484:0 *484:1 0.220714
*END

